p cnf 1746 35666
1 2 3 4 5 6 0
-1 -2 0
-1 -3 0
-1 -4 0
-1 -5 0
-1 -6 0
-2 -3 0
-2 -4 0
-2 -5 0
-2 -6 0
-3 -4 0
-3 -5 0
-3 -6 0
-4 -5 0
-4 -6 0
-5 -6 0
7 14 21 28 0
-7 -14 0
-7 -21 0
-7 -28 0
-14 -21 0
-14 -28 0
-21 -28 0
60 61 62 63 64 65 0
-60 -61 0
-60 -62 0
-60 -63 0
-60 -64 0
-60 -65 0
-61 -62 0
-61 -63 0
-61 -64 0
-61 -65 0
-62 -63 0
-62 -64 0
-62 -65 0
-63 -64 0
-63 -65 0
-64 -65 0
66 73 80 87 0
-66 -73 0
-66 -80 0
-66 -87 0
-73 -80 0
-73 -87 0
-80 -87 0
119 120 121 122 123 0
-119 -120 0
-119 -121 0
-119 -122 0
-119 -123 0
-120 -121 0
-120 -122 0
-120 -123 0
-121 -122 0
-121 -123 0
-122 -123 0
124 130 136 142 0
-124 -130 0
-124 -136 0
-124 -142 0
-130 -136 0
-130 -142 0
-136 -142 0
173 174 175 176 0
-173 -174 0
-173 -175 0
-173 -176 0
-174 -175 0
-174 -176 0
-175 -176 0
177 182 187 192 0
-177 -182 0
-177 -187 0
-177 -192 0
-182 -187 0
-182 -192 0
-187 -192 0
222 223 224 225 226 227 0
-222 -223 0
-222 -224 0
-222 -225 0
-222 -226 0
-222 -227 0
-223 -224 0
-223 -225 0
-223 -226 0
-223 -227 0
-224 -225 0
-224 -226 0
-224 -227 0
-225 -226 0
-225 -227 0
-226 -227 0
228 235 242 249 0
-228 -235 0
-228 -242 0
-228 -249 0
-235 -242 0
-235 -249 0
-242 -249 0
281 282 283 284 285 286 0
-281 -282 0
-281 -283 0
-281 -284 0
-281 -285 0
-281 -286 0
-282 -283 0
-282 -284 0
-282 -285 0
-282 -286 0
-283 -284 0
-283 -285 0
-283 -286 0
-284 -285 0
-284 -286 0
-285 -286 0
287 294 301 308 0
-287 -294 0
-287 -301 0
-287 -308 0
-294 -301 0
-294 -308 0
-301 -308 0
340 341 342 343 344 0
-340 -341 0
-340 -342 0
-340 -343 0
-340 -344 0
-341 -342 0
-341 -343 0
-341 -344 0
-342 -343 0
-342 -344 0
-343 -344 0
345 351 357 363 0
-345 -351 0
-345 -357 0
-345 -363 0
-351 -357 0
-351 -363 0
-357 -363 0
394 395 396 397 0
-394 -395 0
-394 -396 0
-394 -397 0
-395 -396 0
-395 -397 0
-396 -397 0
398 403 408 413 0
-398 -403 0
-398 -408 0
-398 -413 0
-403 -408 0
-403 -413 0
-408 -413 0
443 444 445 446 447 448 0
-443 -444 0
-443 -445 0
-443 -446 0
-443 -447 0
-443 -448 0
-444 -445 0
-444 -446 0
-444 -447 0
-444 -448 0
-445 -446 0
-445 -447 0
-445 -448 0
-446 -447 0
-446 -448 0
-447 -448 0
449 456 463 470 0
-449 -456 0
-449 -463 0
-449 -470 0
-456 -463 0
-456 -470 0
-463 -470 0
502 503 504 505 506 507 0
-502 -503 0
-502 -504 0
-502 -505 0
-502 -506 0
-502 -507 0
-503 -504 0
-503 -505 0
-503 -506 0
-503 -507 0
-504 -505 0
-504 -506 0
-504 -507 0
-505 -506 0
-505 -507 0
-506 -507 0
508 515 522 529 0
-508 -515 0
-508 -522 0
-508 -529 0
-515 -522 0
-515 -529 0
-522 -529 0
561 562 563 564 565 0
-561 -562 0
-561 -563 0
-561 -564 0
-561 -565 0
-562 -563 0
-562 -564 0
-562 -565 0
-563 -564 0
-563 -565 0
-564 -565 0
566 572 578 584 0
-566 -572 0
-566 -578 0
-566 -584 0
-572 -578 0
-572 -584 0
-578 -584 0
615 616 617 618 0
-615 -616 0
-615 -617 0
-615 -618 0
-616 -617 0
-616 -618 0
-617 -618 0
619 624 629 634 0
-619 -624 0
-619 -629 0
-619 -634 0
-624 -629 0
-624 -634 0
-629 -634 0
664 665 666 667 668 669 0
-664 -665 0
-664 -666 0
-664 -667 0
-664 -668 0
-664 -669 0
-665 -666 0
-665 -667 0
-665 -668 0
-665 -669 0
-666 -667 0
-666 -668 0
-666 -669 0
-667 -668 0
-667 -669 0
-668 -669 0
670 677 684 691 0
-670 -677 0
-670 -684 0
-670 -691 0
-677 -684 0
-677 -691 0
-684 -691 0
723 724 725 726 727 728 0
-723 -724 0
-723 -725 0
-723 -726 0
-723 -727 0
-723 -728 0
-724 -725 0
-724 -726 0
-724 -727 0
-724 -728 0
-725 -726 0
-725 -727 0
-725 -728 0
-726 -727 0
-726 -728 0
-727 -728 0
729 736 743 750 0
-729 -736 0
-729 -743 0
-729 -750 0
-736 -743 0
-736 -750 0
-743 -750 0
782 783 784 785 786 0
-782 -783 0
-782 -784 0
-782 -785 0
-782 -786 0
-783 -784 0
-783 -785 0
-783 -786 0
-784 -785 0
-784 -786 0
-785 -786 0
787 793 799 805 0
-787 -793 0
-787 -799 0
-787 -805 0
-793 -799 0
-793 -805 0
-799 -805 0
836 837 838 839 0
-836 -837 0
-836 -838 0
-836 -839 0
-837 -838 0
-837 -839 0
-838 -839 0
840 845 850 855 0
-840 -845 0
-840 -850 0
-840 -855 0
-845 -850 0
-845 -855 0
-850 -855 0
885 886 887 888 889 890 0
-885 -886 0
-885 -887 0
-885 -888 0
-885 -889 0
-885 -890 0
-886 -887 0
-886 -888 0
-886 -889 0
-886 -890 0
-887 -888 0
-887 -889 0
-887 -890 0
-888 -889 0
-888 -890 0
-889 -890 0
891 898 905 912 0
-891 -898 0
-891 -905 0
-891 -912 0
-898 -905 0
-898 -912 0
-905 -912 0
944 945 946 947 948 949 0
-944 -945 0
-944 -946 0
-944 -947 0
-944 -948 0
-944 -949 0
-945 -946 0
-945 -947 0
-945 -948 0
-945 -949 0
-946 -947 0
-946 -948 0
-946 -949 0
-947 -948 0
-947 -949 0
-948 -949 0
950 957 964 971 0
-950 -957 0
-950 -964 0
-950 -971 0
-957 -964 0
-957 -971 0
-964 -971 0
1003 1004 1005 1006 1007 0
-1003 -1004 0
-1003 -1005 0
-1003 -1006 0
-1003 -1007 0
-1004 -1005 0
-1004 -1006 0
-1004 -1007 0
-1005 -1006 0
-1005 -1007 0
-1006 -1007 0
1008 1014 1020 1026 0
-1008 -1014 0
-1008 -1020 0
-1008 -1026 0
-1014 -1020 0
-1014 -1026 0
-1020 -1026 0
1057 1058 1059 1060 0
-1057 -1058 0
-1057 -1059 0
-1057 -1060 0
-1058 -1059 0
-1058 -1060 0
-1059 -1060 0
1061 1066 1071 1076 0
-1061 -1066 0
-1061 -1071 0
-1061 -1076 0
-1066 -1071 0
-1066 -1076 0
-1071 -1076 0
1106 1107 1108 1109 1110 1111 0
-1106 -1107 0
-1106 -1108 0
-1106 -1109 0
-1106 -1110 0
-1106 -1111 0
-1107 -1108 0
-1107 -1109 0
-1107 -1110 0
-1107 -1111 0
-1108 -1109 0
-1108 -1110 0
-1108 -1111 0
-1109 -1110 0
-1109 -1111 0
-1110 -1111 0
1112 1119 1126 1133 0
-1112 -1119 0
-1112 -1126 0
-1112 -1133 0
-1119 -1126 0
-1119 -1133 0
-1126 -1133 0
1165 1166 1167 1168 1169 1170 0
-1165 -1166 0
-1165 -1167 0
-1165 -1168 0
-1165 -1169 0
-1165 -1170 0
-1166 -1167 0
-1166 -1168 0
-1166 -1169 0
-1166 -1170 0
-1167 -1168 0
-1167 -1169 0
-1167 -1170 0
-1168 -1169 0
-1168 -1170 0
-1169 -1170 0
1171 1178 1185 1192 0
-1171 -1178 0
-1171 -1185 0
-1171 -1192 0
-1178 -1185 0
-1178 -1192 0
-1185 -1192 0
1224 1225 1226 1227 1228 0
-1224 -1225 0
-1224 -1226 0
-1224 -1227 0
-1224 -1228 0
-1225 -1226 0
-1225 -1227 0
-1225 -1228 0
-1226 -1227 0
-1226 -1228 0
-1227 -1228 0
1229 1235 1241 1247 0
-1229 -1235 0
-1229 -1241 0
-1229 -1247 0
-1235 -1241 0
-1235 -1247 0
-1241 -1247 0
1278 1279 1280 1281 0
-1278 -1279 0
-1278 -1280 0
-1278 -1281 0
-1279 -1280 0
-1279 -1281 0
-1280 -1281 0
1282 1287 1292 1297 0
-1282 -1287 0
-1282 -1292 0
-1282 -1297 0
-1287 -1292 0
-1287 -1297 0
-1292 -1297 0
-8 1 0
-8 7 0
-1 -7 8 0
-15 1 0
-15 14 0
-1 -14 15 0
-22 1 0
-22 21 0
-1 -21 22 0
-29 1 0
-29 28 0
-1 -28 29 0
-9 2 0
-9 7 0
-2 -7 9 0
-16 2 0
-16 14 0
-2 -14 16 0
-23 2 0
-23 21 0
-2 -21 23 0
-30 2 0
-30 28 0
-2 -28 30 0
-10 3 0
-10 7 0
-3 -7 10 0
-17 3 0
-17 14 0
-3 -14 17 0
-24 3 0
-24 21 0
-3 -21 24 0
-31 3 0
-31 28 0
-3 -28 31 0
-11 4 0
-11 7 0
-4 -7 11 0
-18 4 0
-18 14 0
-4 -14 18 0
-25 4 0
-25 21 0
-4 -21 25 0
-32 4 0
-32 28 0
-4 -28 32 0
-12 5 0
-12 7 0
-5 -7 12 0
-19 5 0
-19 14 0
-5 -14 19 0
-26 5 0
-26 21 0
-5 -21 26 0
-33 5 0
-33 28 0
-5 -28 33 0
-13 6 0
-13 7 0
-6 -7 13 0
-20 6 0
-20 14 0
-6 -14 20 0
-27 6 0
-27 21 0
-6 -21 27 0
-34 6 0
-34 28 0
-6 -28 34 0
-67 60 0
-67 66 0
-60 -66 67 0
-74 60 0
-74 73 0
-60 -73 74 0
-81 60 0
-81 80 0
-60 -80 81 0
-88 60 0
-88 87 0
-60 -87 88 0
-68 61 0
-68 66 0
-61 -66 68 0
-75 61 0
-75 73 0
-61 -73 75 0
-82 61 0
-82 80 0
-61 -80 82 0
-89 61 0
-89 87 0
-61 -87 89 0
-69 62 0
-69 66 0
-62 -66 69 0
-76 62 0
-76 73 0
-62 -73 76 0
-83 62 0
-83 80 0
-62 -80 83 0
-90 62 0
-90 87 0
-62 -87 90 0
-70 63 0
-70 66 0
-63 -66 70 0
-77 63 0
-77 73 0
-63 -73 77 0
-84 63 0
-84 80 0
-63 -80 84 0
-91 63 0
-91 87 0
-63 -87 91 0
-71 64 0
-71 66 0
-64 -66 71 0
-78 64 0
-78 73 0
-64 -73 78 0
-85 64 0
-85 80 0
-64 -80 85 0
-92 64 0
-92 87 0
-64 -87 92 0
-72 65 0
-72 66 0
-65 -66 72 0
-79 65 0
-79 73 0
-65 -73 79 0
-86 65 0
-86 80 0
-65 -80 86 0
-93 65 0
-93 87 0
-65 -87 93 0
-125 119 0
-125 124 0
-119 -124 125 0
-131 119 0
-131 130 0
-119 -130 131 0
-137 119 0
-137 136 0
-119 -136 137 0
-143 119 0
-143 142 0
-119 -142 143 0
-126 120 0
-126 124 0
-120 -124 126 0
-132 120 0
-132 130 0
-120 -130 132 0
-138 120 0
-138 136 0
-120 -136 138 0
-144 120 0
-144 142 0
-120 -142 144 0
-127 121 0
-127 124 0
-121 -124 127 0
-133 121 0
-133 130 0
-121 -130 133 0
-139 121 0
-139 136 0
-121 -136 139 0
-145 121 0
-145 142 0
-121 -142 145 0
-128 122 0
-128 124 0
-122 -124 128 0
-134 122 0
-134 130 0
-122 -130 134 0
-140 122 0
-140 136 0
-122 -136 140 0
-146 122 0
-146 142 0
-122 -142 146 0
-129 123 0
-129 124 0
-123 -124 129 0
-135 123 0
-135 130 0
-123 -130 135 0
-141 123 0
-141 136 0
-123 -136 141 0
-147 123 0
-147 142 0
-123 -142 147 0
-178 173 0
-178 177 0
-173 -177 178 0
-183 173 0
-183 182 0
-173 -182 183 0
-188 173 0
-188 187 0
-173 -187 188 0
-193 173 0
-193 192 0
-173 -192 193 0
-179 174 0
-179 177 0
-174 -177 179 0
-184 174 0
-184 182 0
-174 -182 184 0
-189 174 0
-189 187 0
-174 -187 189 0
-194 174 0
-194 192 0
-174 -192 194 0
-180 175 0
-180 177 0
-175 -177 180 0
-185 175 0
-185 182 0
-175 -182 185 0
-190 175 0
-190 187 0
-175 -187 190 0
-195 175 0
-195 192 0
-175 -192 195 0
-181 176 0
-181 177 0
-176 -177 181 0
-186 176 0
-186 182 0
-176 -182 186 0
-191 176 0
-191 187 0
-176 -187 191 0
-196 176 0
-196 192 0
-176 -192 196 0
-229 222 0
-229 228 0
-222 -228 229 0
-236 222 0
-236 235 0
-222 -235 236 0
-243 222 0
-243 242 0
-222 -242 243 0
-250 222 0
-250 249 0
-222 -249 250 0
-230 223 0
-230 228 0
-223 -228 230 0
-237 223 0
-237 235 0
-223 -235 237 0
-244 223 0
-244 242 0
-223 -242 244 0
-251 223 0
-251 249 0
-223 -249 251 0
-231 224 0
-231 228 0
-224 -228 231 0
-238 224 0
-238 235 0
-224 -235 238 0
-245 224 0
-245 242 0
-224 -242 245 0
-252 224 0
-252 249 0
-224 -249 252 0
-232 225 0
-232 228 0
-225 -228 232 0
-239 225 0
-239 235 0
-225 -235 239 0
-246 225 0
-246 242 0
-225 -242 246 0
-253 225 0
-253 249 0
-225 -249 253 0
-233 226 0
-233 228 0
-226 -228 233 0
-240 226 0
-240 235 0
-226 -235 240 0
-247 226 0
-247 242 0
-226 -242 247 0
-254 226 0
-254 249 0
-226 -249 254 0
-234 227 0
-234 228 0
-227 -228 234 0
-241 227 0
-241 235 0
-227 -235 241 0
-248 227 0
-248 242 0
-227 -242 248 0
-255 227 0
-255 249 0
-227 -249 255 0
-288 281 0
-288 287 0
-281 -287 288 0
-295 281 0
-295 294 0
-281 -294 295 0
-302 281 0
-302 301 0
-281 -301 302 0
-309 281 0
-309 308 0
-281 -308 309 0
-289 282 0
-289 287 0
-282 -287 289 0
-296 282 0
-296 294 0
-282 -294 296 0
-303 282 0
-303 301 0
-282 -301 303 0
-310 282 0
-310 308 0
-282 -308 310 0
-290 283 0
-290 287 0
-283 -287 290 0
-297 283 0
-297 294 0
-283 -294 297 0
-304 283 0
-304 301 0
-283 -301 304 0
-311 283 0
-311 308 0
-283 -308 311 0
-291 284 0
-291 287 0
-284 -287 291 0
-298 284 0
-298 294 0
-284 -294 298 0
-305 284 0
-305 301 0
-284 -301 305 0
-312 284 0
-312 308 0
-284 -308 312 0
-292 285 0
-292 287 0
-285 -287 292 0
-299 285 0
-299 294 0
-285 -294 299 0
-306 285 0
-306 301 0
-285 -301 306 0
-313 285 0
-313 308 0
-285 -308 313 0
-293 286 0
-293 287 0
-286 -287 293 0
-300 286 0
-300 294 0
-286 -294 300 0
-307 286 0
-307 301 0
-286 -301 307 0
-314 286 0
-314 308 0
-286 -308 314 0
-346 340 0
-346 345 0
-340 -345 346 0
-352 340 0
-352 351 0
-340 -351 352 0
-358 340 0
-358 357 0
-340 -357 358 0
-364 340 0
-364 363 0
-340 -363 364 0
-347 341 0
-347 345 0
-341 -345 347 0
-353 341 0
-353 351 0
-341 -351 353 0
-359 341 0
-359 357 0
-341 -357 359 0
-365 341 0
-365 363 0
-341 -363 365 0
-348 342 0
-348 345 0
-342 -345 348 0
-354 342 0
-354 351 0
-342 -351 354 0
-360 342 0
-360 357 0
-342 -357 360 0
-366 342 0
-366 363 0
-342 -363 366 0
-349 343 0
-349 345 0
-343 -345 349 0
-355 343 0
-355 351 0
-343 -351 355 0
-361 343 0
-361 357 0
-343 -357 361 0
-367 343 0
-367 363 0
-343 -363 367 0
-350 344 0
-350 345 0
-344 -345 350 0
-356 344 0
-356 351 0
-344 -351 356 0
-362 344 0
-362 357 0
-344 -357 362 0
-368 344 0
-368 363 0
-344 -363 368 0
-399 394 0
-399 398 0
-394 -398 399 0
-404 394 0
-404 403 0
-394 -403 404 0
-409 394 0
-409 408 0
-394 -408 409 0
-414 394 0
-414 413 0
-394 -413 414 0
-400 395 0
-400 398 0
-395 -398 400 0
-405 395 0
-405 403 0
-395 -403 405 0
-410 395 0
-410 408 0
-395 -408 410 0
-415 395 0
-415 413 0
-395 -413 415 0
-401 396 0
-401 398 0
-396 -398 401 0
-406 396 0
-406 403 0
-396 -403 406 0
-411 396 0
-411 408 0
-396 -408 411 0
-416 396 0
-416 413 0
-396 -413 416 0
-402 397 0
-402 398 0
-397 -398 402 0
-407 397 0
-407 403 0
-397 -403 407 0
-412 397 0
-412 408 0
-397 -408 412 0
-417 397 0
-417 413 0
-397 -413 417 0
-450 443 0
-450 449 0
-443 -449 450 0
-457 443 0
-457 456 0
-443 -456 457 0
-464 443 0
-464 463 0
-443 -463 464 0
-471 443 0
-471 470 0
-443 -470 471 0
-451 444 0
-451 449 0
-444 -449 451 0
-458 444 0
-458 456 0
-444 -456 458 0
-465 444 0
-465 463 0
-444 -463 465 0
-472 444 0
-472 470 0
-444 -470 472 0
-452 445 0
-452 449 0
-445 -449 452 0
-459 445 0
-459 456 0
-445 -456 459 0
-466 445 0
-466 463 0
-445 -463 466 0
-473 445 0
-473 470 0
-445 -470 473 0
-453 446 0
-453 449 0
-446 -449 453 0
-460 446 0
-460 456 0
-446 -456 460 0
-467 446 0
-467 463 0
-446 -463 467 0
-474 446 0
-474 470 0
-446 -470 474 0
-454 447 0
-454 449 0
-447 -449 454 0
-461 447 0
-461 456 0
-447 -456 461 0
-468 447 0
-468 463 0
-447 -463 468 0
-475 447 0
-475 470 0
-447 -470 475 0
-455 448 0
-455 449 0
-448 -449 455 0
-462 448 0
-462 456 0
-448 -456 462 0
-469 448 0
-469 463 0
-448 -463 469 0
-476 448 0
-476 470 0
-448 -470 476 0
-509 502 0
-509 508 0
-502 -508 509 0
-516 502 0
-516 515 0
-502 -515 516 0
-523 502 0
-523 522 0
-502 -522 523 0
-530 502 0
-530 529 0
-502 -529 530 0
-510 503 0
-510 508 0
-503 -508 510 0
-517 503 0
-517 515 0
-503 -515 517 0
-524 503 0
-524 522 0
-503 -522 524 0
-531 503 0
-531 529 0
-503 -529 531 0
-511 504 0
-511 508 0
-504 -508 511 0
-518 504 0
-518 515 0
-504 -515 518 0
-525 504 0
-525 522 0
-504 -522 525 0
-532 504 0
-532 529 0
-504 -529 532 0
-512 505 0
-512 508 0
-505 -508 512 0
-519 505 0
-519 515 0
-505 -515 519 0
-526 505 0
-526 522 0
-505 -522 526 0
-533 505 0
-533 529 0
-505 -529 533 0
-513 506 0
-513 508 0
-506 -508 513 0
-520 506 0
-520 515 0
-506 -515 520 0
-527 506 0
-527 522 0
-506 -522 527 0
-534 506 0
-534 529 0
-506 -529 534 0
-514 507 0
-514 508 0
-507 -508 514 0
-521 507 0
-521 515 0
-507 -515 521 0
-528 507 0
-528 522 0
-507 -522 528 0
-535 507 0
-535 529 0
-507 -529 535 0
-567 561 0
-567 566 0
-561 -566 567 0
-573 561 0
-573 572 0
-561 -572 573 0
-579 561 0
-579 578 0
-561 -578 579 0
-585 561 0
-585 584 0
-561 -584 585 0
-568 562 0
-568 566 0
-562 -566 568 0
-574 562 0
-574 572 0
-562 -572 574 0
-580 562 0
-580 578 0
-562 -578 580 0
-586 562 0
-586 584 0
-562 -584 586 0
-569 563 0
-569 566 0
-563 -566 569 0
-575 563 0
-575 572 0
-563 -572 575 0
-581 563 0
-581 578 0
-563 -578 581 0
-587 563 0
-587 584 0
-563 -584 587 0
-570 564 0
-570 566 0
-564 -566 570 0
-576 564 0
-576 572 0
-564 -572 576 0
-582 564 0
-582 578 0
-564 -578 582 0
-588 564 0
-588 584 0
-564 -584 588 0
-571 565 0
-571 566 0
-565 -566 571 0
-577 565 0
-577 572 0
-565 -572 577 0
-583 565 0
-583 578 0
-565 -578 583 0
-589 565 0
-589 584 0
-565 -584 589 0
-620 615 0
-620 619 0
-615 -619 620 0
-625 615 0
-625 624 0
-615 -624 625 0
-630 615 0
-630 629 0
-615 -629 630 0
-635 615 0
-635 634 0
-615 -634 635 0
-621 616 0
-621 619 0
-616 -619 621 0
-626 616 0
-626 624 0
-616 -624 626 0
-631 616 0
-631 629 0
-616 -629 631 0
-636 616 0
-636 634 0
-616 -634 636 0
-622 617 0
-622 619 0
-617 -619 622 0
-627 617 0
-627 624 0
-617 -624 627 0
-632 617 0
-632 629 0
-617 -629 632 0
-637 617 0
-637 634 0
-617 -634 637 0
-623 618 0
-623 619 0
-618 -619 623 0
-628 618 0
-628 624 0
-618 -624 628 0
-633 618 0
-633 629 0
-618 -629 633 0
-638 618 0
-638 634 0
-618 -634 638 0
-671 664 0
-671 670 0
-664 -670 671 0
-678 664 0
-678 677 0
-664 -677 678 0
-685 664 0
-685 684 0
-664 -684 685 0
-692 664 0
-692 691 0
-664 -691 692 0
-672 665 0
-672 670 0
-665 -670 672 0
-679 665 0
-679 677 0
-665 -677 679 0
-686 665 0
-686 684 0
-665 -684 686 0
-693 665 0
-693 691 0
-665 -691 693 0
-673 666 0
-673 670 0
-666 -670 673 0
-680 666 0
-680 677 0
-666 -677 680 0
-687 666 0
-687 684 0
-666 -684 687 0
-694 666 0
-694 691 0
-666 -691 694 0
-674 667 0
-674 670 0
-667 -670 674 0
-681 667 0
-681 677 0
-667 -677 681 0
-688 667 0
-688 684 0
-667 -684 688 0
-695 667 0
-695 691 0
-667 -691 695 0
-675 668 0
-675 670 0
-668 -670 675 0
-682 668 0
-682 677 0
-668 -677 682 0
-689 668 0
-689 684 0
-668 -684 689 0
-696 668 0
-696 691 0
-668 -691 696 0
-676 669 0
-676 670 0
-669 -670 676 0
-683 669 0
-683 677 0
-669 -677 683 0
-690 669 0
-690 684 0
-669 -684 690 0
-697 669 0
-697 691 0
-669 -691 697 0
-730 723 0
-730 729 0
-723 -729 730 0
-737 723 0
-737 736 0
-723 -736 737 0
-744 723 0
-744 743 0
-723 -743 744 0
-751 723 0
-751 750 0
-723 -750 751 0
-731 724 0
-731 729 0
-724 -729 731 0
-738 724 0
-738 736 0
-724 -736 738 0
-745 724 0
-745 743 0
-724 -743 745 0
-752 724 0
-752 750 0
-724 -750 752 0
-732 725 0
-732 729 0
-725 -729 732 0
-739 725 0
-739 736 0
-725 -736 739 0
-746 725 0
-746 743 0
-725 -743 746 0
-753 725 0
-753 750 0
-725 -750 753 0
-733 726 0
-733 729 0
-726 -729 733 0
-740 726 0
-740 736 0
-726 -736 740 0
-747 726 0
-747 743 0
-726 -743 747 0
-754 726 0
-754 750 0
-726 -750 754 0
-734 727 0
-734 729 0
-727 -729 734 0
-741 727 0
-741 736 0
-727 -736 741 0
-748 727 0
-748 743 0
-727 -743 748 0
-755 727 0
-755 750 0
-727 -750 755 0
-735 728 0
-735 729 0
-728 -729 735 0
-742 728 0
-742 736 0
-728 -736 742 0
-749 728 0
-749 743 0
-728 -743 749 0
-756 728 0
-756 750 0
-728 -750 756 0
-788 782 0
-788 787 0
-782 -787 788 0
-794 782 0
-794 793 0
-782 -793 794 0
-800 782 0
-800 799 0
-782 -799 800 0
-806 782 0
-806 805 0
-782 -805 806 0
-789 783 0
-789 787 0
-783 -787 789 0
-795 783 0
-795 793 0
-783 -793 795 0
-801 783 0
-801 799 0
-783 -799 801 0
-807 783 0
-807 805 0
-783 -805 807 0
-790 784 0
-790 787 0
-784 -787 790 0
-796 784 0
-796 793 0
-784 -793 796 0
-802 784 0
-802 799 0
-784 -799 802 0
-808 784 0
-808 805 0
-784 -805 808 0
-791 785 0
-791 787 0
-785 -787 791 0
-797 785 0
-797 793 0
-785 -793 797 0
-803 785 0
-803 799 0
-785 -799 803 0
-809 785 0
-809 805 0
-785 -805 809 0
-792 786 0
-792 787 0
-786 -787 792 0
-798 786 0
-798 793 0
-786 -793 798 0
-804 786 0
-804 799 0
-786 -799 804 0
-810 786 0
-810 805 0
-786 -805 810 0
-841 836 0
-841 840 0
-836 -840 841 0
-846 836 0
-846 845 0
-836 -845 846 0
-851 836 0
-851 850 0
-836 -850 851 0
-856 836 0
-856 855 0
-836 -855 856 0
-842 837 0
-842 840 0
-837 -840 842 0
-847 837 0
-847 845 0
-837 -845 847 0
-852 837 0
-852 850 0
-837 -850 852 0
-857 837 0
-857 855 0
-837 -855 857 0
-843 838 0
-843 840 0
-838 -840 843 0
-848 838 0
-848 845 0
-838 -845 848 0
-853 838 0
-853 850 0
-838 -850 853 0
-858 838 0
-858 855 0
-838 -855 858 0
-844 839 0
-844 840 0
-839 -840 844 0
-849 839 0
-849 845 0
-839 -845 849 0
-854 839 0
-854 850 0
-839 -850 854 0
-859 839 0
-859 855 0
-839 -855 859 0
-892 885 0
-892 891 0
-885 -891 892 0
-899 885 0
-899 898 0
-885 -898 899 0
-906 885 0
-906 905 0
-885 -905 906 0
-913 885 0
-913 912 0
-885 -912 913 0
-893 886 0
-893 891 0
-886 -891 893 0
-900 886 0
-900 898 0
-886 -898 900 0
-907 886 0
-907 905 0
-886 -905 907 0
-914 886 0
-914 912 0
-886 -912 914 0
-894 887 0
-894 891 0
-887 -891 894 0
-901 887 0
-901 898 0
-887 -898 901 0
-908 887 0
-908 905 0
-887 -905 908 0
-915 887 0
-915 912 0
-887 -912 915 0
-895 888 0
-895 891 0
-888 -891 895 0
-902 888 0
-902 898 0
-888 -898 902 0
-909 888 0
-909 905 0
-888 -905 909 0
-916 888 0
-916 912 0
-888 -912 916 0
-896 889 0
-896 891 0
-889 -891 896 0
-903 889 0
-903 898 0
-889 -898 903 0
-910 889 0
-910 905 0
-889 -905 910 0
-917 889 0
-917 912 0
-889 -912 917 0
-897 890 0
-897 891 0
-890 -891 897 0
-904 890 0
-904 898 0
-890 -898 904 0
-911 890 0
-911 905 0
-890 -905 911 0
-918 890 0
-918 912 0
-890 -912 918 0
-951 944 0
-951 950 0
-944 -950 951 0
-958 944 0
-958 957 0
-944 -957 958 0
-965 944 0
-965 964 0
-944 -964 965 0
-972 944 0
-972 971 0
-944 -971 972 0
-952 945 0
-952 950 0
-945 -950 952 0
-959 945 0
-959 957 0
-945 -957 959 0
-966 945 0
-966 964 0
-945 -964 966 0
-973 945 0
-973 971 0
-945 -971 973 0
-953 946 0
-953 950 0
-946 -950 953 0
-960 946 0
-960 957 0
-946 -957 960 0
-967 946 0
-967 964 0
-946 -964 967 0
-974 946 0
-974 971 0
-946 -971 974 0
-954 947 0
-954 950 0
-947 -950 954 0
-961 947 0
-961 957 0
-947 -957 961 0
-968 947 0
-968 964 0
-947 -964 968 0
-975 947 0
-975 971 0
-947 -971 975 0
-955 948 0
-955 950 0
-948 -950 955 0
-962 948 0
-962 957 0
-948 -957 962 0
-969 948 0
-969 964 0
-948 -964 969 0
-976 948 0
-976 971 0
-948 -971 976 0
-956 949 0
-956 950 0
-949 -950 956 0
-963 949 0
-963 957 0
-949 -957 963 0
-970 949 0
-970 964 0
-949 -964 970 0
-977 949 0
-977 971 0
-949 -971 977 0
-1009 1003 0
-1009 1008 0
-1003 -1008 1009 0
-1015 1003 0
-1015 1014 0
-1003 -1014 1015 0
-1021 1003 0
-1021 1020 0
-1003 -1020 1021 0
-1027 1003 0
-1027 1026 0
-1003 -1026 1027 0
-1010 1004 0
-1010 1008 0
-1004 -1008 1010 0
-1016 1004 0
-1016 1014 0
-1004 -1014 1016 0
-1022 1004 0
-1022 1020 0
-1004 -1020 1022 0
-1028 1004 0
-1028 1026 0
-1004 -1026 1028 0
-1011 1005 0
-1011 1008 0
-1005 -1008 1011 0
-1017 1005 0
-1017 1014 0
-1005 -1014 1017 0
-1023 1005 0
-1023 1020 0
-1005 -1020 1023 0
-1029 1005 0
-1029 1026 0
-1005 -1026 1029 0
-1012 1006 0
-1012 1008 0
-1006 -1008 1012 0
-1018 1006 0
-1018 1014 0
-1006 -1014 1018 0
-1024 1006 0
-1024 1020 0
-1006 -1020 1024 0
-1030 1006 0
-1030 1026 0
-1006 -1026 1030 0
-1013 1007 0
-1013 1008 0
-1007 -1008 1013 0
-1019 1007 0
-1019 1014 0
-1007 -1014 1019 0
-1025 1007 0
-1025 1020 0
-1007 -1020 1025 0
-1031 1007 0
-1031 1026 0
-1007 -1026 1031 0
-1062 1057 0
-1062 1061 0
-1057 -1061 1062 0
-1067 1057 0
-1067 1066 0
-1057 -1066 1067 0
-1072 1057 0
-1072 1071 0
-1057 -1071 1072 0
-1077 1057 0
-1077 1076 0
-1057 -1076 1077 0
-1063 1058 0
-1063 1061 0
-1058 -1061 1063 0
-1068 1058 0
-1068 1066 0
-1058 -1066 1068 0
-1073 1058 0
-1073 1071 0
-1058 -1071 1073 0
-1078 1058 0
-1078 1076 0
-1058 -1076 1078 0
-1064 1059 0
-1064 1061 0
-1059 -1061 1064 0
-1069 1059 0
-1069 1066 0
-1059 -1066 1069 0
-1074 1059 0
-1074 1071 0
-1059 -1071 1074 0
-1079 1059 0
-1079 1076 0
-1059 -1076 1079 0
-1065 1060 0
-1065 1061 0
-1060 -1061 1065 0
-1070 1060 0
-1070 1066 0
-1060 -1066 1070 0
-1075 1060 0
-1075 1071 0
-1060 -1071 1075 0
-1080 1060 0
-1080 1076 0
-1060 -1076 1080 0
-1113 1106 0
-1113 1112 0
-1106 -1112 1113 0
-1120 1106 0
-1120 1119 0
-1106 -1119 1120 0
-1127 1106 0
-1127 1126 0
-1106 -1126 1127 0
-1134 1106 0
-1134 1133 0
-1106 -1133 1134 0
-1114 1107 0
-1114 1112 0
-1107 -1112 1114 0
-1121 1107 0
-1121 1119 0
-1107 -1119 1121 0
-1128 1107 0
-1128 1126 0
-1107 -1126 1128 0
-1135 1107 0
-1135 1133 0
-1107 -1133 1135 0
-1115 1108 0
-1115 1112 0
-1108 -1112 1115 0
-1122 1108 0
-1122 1119 0
-1108 -1119 1122 0
-1129 1108 0
-1129 1126 0
-1108 -1126 1129 0
-1136 1108 0
-1136 1133 0
-1108 -1133 1136 0
-1116 1109 0
-1116 1112 0
-1109 -1112 1116 0
-1123 1109 0
-1123 1119 0
-1109 -1119 1123 0
-1130 1109 0
-1130 1126 0
-1109 -1126 1130 0
-1137 1109 0
-1137 1133 0
-1109 -1133 1137 0
-1117 1110 0
-1117 1112 0
-1110 -1112 1117 0
-1124 1110 0
-1124 1119 0
-1110 -1119 1124 0
-1131 1110 0
-1131 1126 0
-1110 -1126 1131 0
-1138 1110 0
-1138 1133 0
-1110 -1133 1138 0
-1118 1111 0
-1118 1112 0
-1111 -1112 1118 0
-1125 1111 0
-1125 1119 0
-1111 -1119 1125 0
-1132 1111 0
-1132 1126 0
-1111 -1126 1132 0
-1139 1111 0
-1139 1133 0
-1111 -1133 1139 0
-1172 1165 0
-1172 1171 0
-1165 -1171 1172 0
-1179 1165 0
-1179 1178 0
-1165 -1178 1179 0
-1186 1165 0
-1186 1185 0
-1165 -1185 1186 0
-1193 1165 0
-1193 1192 0
-1165 -1192 1193 0
-1173 1166 0
-1173 1171 0
-1166 -1171 1173 0
-1180 1166 0
-1180 1178 0
-1166 -1178 1180 0
-1187 1166 0
-1187 1185 0
-1166 -1185 1187 0
-1194 1166 0
-1194 1192 0
-1166 -1192 1194 0
-1174 1167 0
-1174 1171 0
-1167 -1171 1174 0
-1181 1167 0
-1181 1178 0
-1167 -1178 1181 0
-1188 1167 0
-1188 1185 0
-1167 -1185 1188 0
-1195 1167 0
-1195 1192 0
-1167 -1192 1195 0
-1175 1168 0
-1175 1171 0
-1168 -1171 1175 0
-1182 1168 0
-1182 1178 0
-1168 -1178 1182 0
-1189 1168 0
-1189 1185 0
-1168 -1185 1189 0
-1196 1168 0
-1196 1192 0
-1168 -1192 1196 0
-1176 1169 0
-1176 1171 0
-1169 -1171 1176 0
-1183 1169 0
-1183 1178 0
-1169 -1178 1183 0
-1190 1169 0
-1190 1185 0
-1169 -1185 1190 0
-1197 1169 0
-1197 1192 0
-1169 -1192 1197 0
-1177 1170 0
-1177 1171 0
-1170 -1171 1177 0
-1184 1170 0
-1184 1178 0
-1170 -1178 1184 0
-1191 1170 0
-1191 1185 0
-1170 -1185 1191 0
-1198 1170 0
-1198 1192 0
-1170 -1192 1198 0
-1230 1224 0
-1230 1229 0
-1224 -1229 1230 0
-1236 1224 0
-1236 1235 0
-1224 -1235 1236 0
-1242 1224 0
-1242 1241 0
-1224 -1241 1242 0
-1248 1224 0
-1248 1247 0
-1224 -1247 1248 0
-1231 1225 0
-1231 1229 0
-1225 -1229 1231 0
-1237 1225 0
-1237 1235 0
-1225 -1235 1237 0
-1243 1225 0
-1243 1241 0
-1225 -1241 1243 0
-1249 1225 0
-1249 1247 0
-1225 -1247 1249 0
-1232 1226 0
-1232 1229 0
-1226 -1229 1232 0
-1238 1226 0
-1238 1235 0
-1226 -1235 1238 0
-1244 1226 0
-1244 1241 0
-1226 -1241 1244 0
-1250 1226 0
-1250 1247 0
-1226 -1247 1250 0
-1233 1227 0
-1233 1229 0
-1227 -1229 1233 0
-1239 1227 0
-1239 1235 0
-1227 -1235 1239 0
-1245 1227 0
-1245 1241 0
-1227 -1241 1245 0
-1251 1227 0
-1251 1247 0
-1227 -1247 1251 0
-1234 1228 0
-1234 1229 0
-1228 -1229 1234 0
-1240 1228 0
-1240 1235 0
-1228 -1235 1240 0
-1246 1228 0
-1246 1241 0
-1228 -1241 1246 0
-1252 1228 0
-1252 1247 0
-1228 -1247 1252 0
-1283 1278 0
-1283 1282 0
-1278 -1282 1283 0
-1288 1278 0
-1288 1287 0
-1278 -1287 1288 0
-1293 1278 0
-1293 1292 0
-1278 -1292 1293 0
-1298 1278 0
-1298 1297 0
-1278 -1297 1298 0
-1284 1279 0
-1284 1282 0
-1279 -1282 1284 0
-1289 1279 0
-1289 1287 0
-1279 -1287 1289 0
-1294 1279 0
-1294 1292 0
-1279 -1292 1294 0
-1299 1279 0
-1299 1297 0
-1279 -1297 1299 0
-1285 1280 0
-1285 1282 0
-1280 -1282 1285 0
-1290 1280 0
-1290 1287 0
-1280 -1287 1290 0
-1295 1280 0
-1295 1292 0
-1280 -1292 1295 0
-1300 1280 0
-1300 1297 0
-1280 -1297 1300 0
-1286 1281 0
-1286 1282 0
-1281 -1282 1286 0
-1291 1281 0
-1291 1287 0
-1281 -1287 1291 0
-1296 1281 0
-1296 1292 0
-1281 -1292 1296 0
-1301 1281 0
-1301 1297 0
-1281 -1297 1301 0
-8 197 0
-67 197 0
-125 197 0
-178 197 0
-197 8 67 125 178 0
-9 198 0
-68 198 0
-125 198 0
-126 198 0
-178 198 0
-179 198 0
-198 9 68 125 126 178 179 0
-10 199 0
-69 199 0
-126 199 0
-127 199 0
-178 199 0
-179 199 0
-180 199 0
-199 10 69 126 127 178 179 180 0
-11 200 0
-70 200 0
-127 200 0
-128 200 0
-179 200 0
-180 200 0
-181 200 0
-200 11 70 127 128 179 180 181 0
-12 201 0
-71 201 0
-128 201 0
-129 201 0
-180 201 0
-181 201 0
-201 12 71 128 129 180 181 0
-13 202 0
-72 202 0
-129 202 0
-181 202 0
-202 13 72 129 181 0
-15 203 0
-74 203 0
-131 203 0
-183 203 0
-203 15 74 131 183 0
-16 204 0
-75 204 0
-131 204 0
-132 204 0
-183 204 0
-184 204 0
-204 16 75 131 132 183 184 0
-17 205 0
-76 205 0
-132 205 0
-133 205 0
-183 205 0
-184 205 0
-185 205 0
-205 17 76 132 133 183 184 185 0
-18 206 0
-77 206 0
-133 206 0
-134 206 0
-184 206 0
-185 206 0
-186 206 0
-206 18 77 133 134 184 185 186 0
-19 207 0
-78 207 0
-134 207 0
-135 207 0
-185 207 0
-186 207 0
-207 19 78 134 135 185 186 0
-20 208 0
-79 208 0
-135 208 0
-186 208 0
-208 20 79 135 186 0
-22 209 0
-81 209 0
-137 209 0
-188 209 0
-209 22 81 137 188 0
-23 210 0
-82 210 0
-137 210 0
-138 210 0
-188 210 0
-189 210 0
-210 23 82 137 138 188 189 0
-24 211 0
-83 211 0
-138 211 0
-139 211 0
-188 211 0
-189 211 0
-190 211 0
-211 24 83 138 139 188 189 190 0
-25 212 0
-84 212 0
-139 212 0
-140 212 0
-189 212 0
-190 212 0
-191 212 0
-212 25 84 139 140 189 190 191 0
-26 213 0
-85 213 0
-140 213 0
-141 213 0
-190 213 0
-191 213 0
-213 26 85 140 141 190 191 0
-27 214 0
-86 214 0
-141 214 0
-191 214 0
-214 27 86 141 191 0
-29 215 0
-88 215 0
-143 215 0
-193 215 0
-215 29 88 143 193 0
-30 216 0
-89 216 0
-143 216 0
-144 216 0
-193 216 0
-194 216 0
-216 30 89 143 144 193 194 0
-31 217 0
-90 217 0
-144 217 0
-145 217 0
-193 217 0
-194 217 0
-195 217 0
-217 31 90 144 145 193 194 195 0
-32 218 0
-91 218 0
-145 218 0
-146 218 0
-194 218 0
-195 218 0
-196 218 0
-218 32 91 145 146 194 195 196 0
-33 219 0
-92 219 0
-146 219 0
-147 219 0
-195 219 0
-196 219 0
-219 33 92 146 147 195 196 0
-34 220 0
-93 220 0
-147 220 0
-196 220 0
-220 34 93 147 196 0
-229 418 0
-288 418 0
-346 418 0
-399 418 0
-418 229 288 346 399 0
-230 419 0
-289 419 0
-346 419 0
-347 419 0
-399 419 0
-400 419 0
-419 230 289 346 347 399 400 0
-231 420 0
-290 420 0
-347 420 0
-348 420 0
-399 420 0
-400 420 0
-401 420 0
-420 231 290 347 348 399 400 401 0
-232 421 0
-291 421 0
-348 421 0
-349 421 0
-400 421 0
-401 421 0
-402 421 0
-421 232 291 348 349 400 401 402 0
-233 422 0
-292 422 0
-349 422 0
-350 422 0
-401 422 0
-402 422 0
-422 233 292 349 350 401 402 0
-234 423 0
-293 423 0
-350 423 0
-402 423 0
-423 234 293 350 402 0
-236 424 0
-295 424 0
-352 424 0
-404 424 0
-424 236 295 352 404 0
-237 425 0
-296 425 0
-352 425 0
-353 425 0
-404 425 0
-405 425 0
-425 237 296 352 353 404 405 0
-238 426 0
-297 426 0
-353 426 0
-354 426 0
-404 426 0
-405 426 0
-406 426 0
-426 238 297 353 354 404 405 406 0
-239 427 0
-298 427 0
-354 427 0
-355 427 0
-405 427 0
-406 427 0
-407 427 0
-427 239 298 354 355 405 406 407 0
-240 428 0
-299 428 0
-355 428 0
-356 428 0
-406 428 0
-407 428 0
-428 240 299 355 356 406 407 0
-241 429 0
-300 429 0
-356 429 0
-407 429 0
-429 241 300 356 407 0
-243 430 0
-302 430 0
-358 430 0
-409 430 0
-430 243 302 358 409 0
-244 431 0
-303 431 0
-358 431 0
-359 431 0
-409 431 0
-410 431 0
-431 244 303 358 359 409 410 0
-245 432 0
-304 432 0
-359 432 0
-360 432 0
-409 432 0
-410 432 0
-411 432 0
-432 245 304 359 360 409 410 411 0
-246 433 0
-305 433 0
-360 433 0
-361 433 0
-410 433 0
-411 433 0
-412 433 0
-433 246 305 360 361 410 411 412 0
-247 434 0
-306 434 0
-361 434 0
-362 434 0
-411 434 0
-412 434 0
-434 247 306 361 362 411 412 0
-248 435 0
-307 435 0
-362 435 0
-412 435 0
-435 248 307 362 412 0
-250 436 0
-309 436 0
-364 436 0
-414 436 0
-436 250 309 364 414 0
-251 437 0
-310 437 0
-364 437 0
-365 437 0
-414 437 0
-415 437 0
-437 251 310 364 365 414 415 0
-252 438 0
-311 438 0
-365 438 0
-366 438 0
-414 438 0
-415 438 0
-416 438 0
-438 252 311 365 366 414 415 416 0
-253 439 0
-312 439 0
-366 439 0
-367 439 0
-415 439 0
-416 439 0
-417 439 0
-439 253 312 366 367 415 416 417 0
-254 440 0
-313 440 0
-367 440 0
-368 440 0
-416 440 0
-417 440 0
-440 254 313 367 368 416 417 0
-255 441 0
-314 441 0
-368 441 0
-417 441 0
-441 255 314 368 417 0
-450 639 0
-509 639 0
-567 639 0
-620 639 0
-639 450 509 567 620 0
-451 640 0
-510 640 0
-567 640 0
-568 640 0
-620 640 0
-621 640 0
-640 451 510 567 568 620 621 0
-452 641 0
-511 641 0
-568 641 0
-569 641 0
-620 641 0
-621 641 0
-622 641 0
-641 452 511 568 569 620 621 622 0
-453 642 0
-512 642 0
-569 642 0
-570 642 0
-621 642 0
-622 642 0
-623 642 0
-642 453 512 569 570 621 622 623 0
-454 643 0
-513 643 0
-570 643 0
-571 643 0
-622 643 0
-623 643 0
-643 454 513 570 571 622 623 0
-455 644 0
-514 644 0
-571 644 0
-623 644 0
-644 455 514 571 623 0
-457 645 0
-516 645 0
-573 645 0
-625 645 0
-645 457 516 573 625 0
-458 646 0
-517 646 0
-573 646 0
-574 646 0
-625 646 0
-626 646 0
-646 458 517 573 574 625 626 0
-459 647 0
-518 647 0
-574 647 0
-575 647 0
-625 647 0
-626 647 0
-627 647 0
-647 459 518 574 575 625 626 627 0
-460 648 0
-519 648 0
-575 648 0
-576 648 0
-626 648 0
-627 648 0
-628 648 0
-648 460 519 575 576 626 627 628 0
-461 649 0
-520 649 0
-576 649 0
-577 649 0
-627 649 0
-628 649 0
-649 461 520 576 577 627 628 0
-462 650 0
-521 650 0
-577 650 0
-628 650 0
-650 462 521 577 628 0
-464 651 0
-523 651 0
-579 651 0
-630 651 0
-651 464 523 579 630 0
-465 652 0
-524 652 0
-579 652 0
-580 652 0
-630 652 0
-631 652 0
-652 465 524 579 580 630 631 0
-466 653 0
-525 653 0
-580 653 0
-581 653 0
-630 653 0
-631 653 0
-632 653 0
-653 466 525 580 581 630 631 632 0
-467 654 0
-526 654 0
-581 654 0
-582 654 0
-631 654 0
-632 654 0
-633 654 0
-654 467 526 581 582 631 632 633 0
-468 655 0
-527 655 0
-582 655 0
-583 655 0
-632 655 0
-633 655 0
-655 468 527 582 583 632 633 0
-469 656 0
-528 656 0
-583 656 0
-633 656 0
-656 469 528 583 633 0
-471 657 0
-530 657 0
-585 657 0
-635 657 0
-657 471 530 585 635 0
-472 658 0
-531 658 0
-585 658 0
-586 658 0
-635 658 0
-636 658 0
-658 472 531 585 586 635 636 0
-473 659 0
-532 659 0
-586 659 0
-587 659 0
-635 659 0
-636 659 0
-637 659 0
-659 473 532 586 587 635 636 637 0
-474 660 0
-533 660 0
-587 660 0
-588 660 0
-636 660 0
-637 660 0
-638 660 0
-660 474 533 587 588 636 637 638 0
-475 661 0
-534 661 0
-588 661 0
-589 661 0
-637 661 0
-638 661 0
-661 475 534 588 589 637 638 0
-476 662 0
-535 662 0
-589 662 0
-638 662 0
-662 476 535 589 638 0
-671 860 0
-730 860 0
-788 860 0
-841 860 0
-860 671 730 788 841 0
-672 861 0
-731 861 0
-788 861 0
-789 861 0
-841 861 0
-842 861 0
-861 672 731 788 789 841 842 0
-673 862 0
-732 862 0
-789 862 0
-790 862 0
-841 862 0
-842 862 0
-843 862 0
-862 673 732 789 790 841 842 843 0
-674 863 0
-733 863 0
-790 863 0
-791 863 0
-842 863 0
-843 863 0
-844 863 0
-863 674 733 790 791 842 843 844 0
-675 864 0
-734 864 0
-791 864 0
-792 864 0
-843 864 0
-844 864 0
-864 675 734 791 792 843 844 0
-676 865 0
-735 865 0
-792 865 0
-844 865 0
-865 676 735 792 844 0
-678 866 0
-737 866 0
-794 866 0
-846 866 0
-866 678 737 794 846 0
-679 867 0
-738 867 0
-794 867 0
-795 867 0
-846 867 0
-847 867 0
-867 679 738 794 795 846 847 0
-680 868 0
-739 868 0
-795 868 0
-796 868 0
-846 868 0
-847 868 0
-848 868 0
-868 680 739 795 796 846 847 848 0
-681 869 0
-740 869 0
-796 869 0
-797 869 0
-847 869 0
-848 869 0
-849 869 0
-869 681 740 796 797 847 848 849 0
-682 870 0
-741 870 0
-797 870 0
-798 870 0
-848 870 0
-849 870 0
-870 682 741 797 798 848 849 0
-683 871 0
-742 871 0
-798 871 0
-849 871 0
-871 683 742 798 849 0
-685 872 0
-744 872 0
-800 872 0
-851 872 0
-872 685 744 800 851 0
-686 873 0
-745 873 0
-800 873 0
-801 873 0
-851 873 0
-852 873 0
-873 686 745 800 801 851 852 0
-687 874 0
-746 874 0
-801 874 0
-802 874 0
-851 874 0
-852 874 0
-853 874 0
-874 687 746 801 802 851 852 853 0
-688 875 0
-747 875 0
-802 875 0
-803 875 0
-852 875 0
-853 875 0
-854 875 0
-875 688 747 802 803 852 853 854 0
-689 876 0
-748 876 0
-803 876 0
-804 876 0
-853 876 0
-854 876 0
-876 689 748 803 804 853 854 0
-690 877 0
-749 877 0
-804 877 0
-854 877 0
-877 690 749 804 854 0
-692 878 0
-751 878 0
-806 878 0
-856 878 0
-878 692 751 806 856 0
-693 879 0
-752 879 0
-806 879 0
-807 879 0
-856 879 0
-857 879 0
-879 693 752 806 807 856 857 0
-694 880 0
-753 880 0
-807 880 0
-808 880 0
-856 880 0
-857 880 0
-858 880 0
-880 694 753 807 808 856 857 858 0
-695 881 0
-754 881 0
-808 881 0
-809 881 0
-857 881 0
-858 881 0
-859 881 0
-881 695 754 808 809 857 858 859 0
-696 882 0
-755 882 0
-809 882 0
-810 882 0
-858 882 0
-859 882 0
-882 696 755 809 810 858 859 0
-697 883 0
-756 883 0
-810 883 0
-859 883 0
-883 697 756 810 859 0
-892 1081 0
-951 1081 0
-1009 1081 0
-1062 1081 0
-1081 892 951 1009 1062 0
-893 1082 0
-952 1082 0
-1009 1082 0
-1010 1082 0
-1062 1082 0
-1063 1082 0
-1082 893 952 1009 1010 1062 1063 0
-894 1083 0
-953 1083 0
-1010 1083 0
-1011 1083 0
-1062 1083 0
-1063 1083 0
-1064 1083 0
-1083 894 953 1010 1011 1062 1063 1064 0
-895 1084 0
-954 1084 0
-1011 1084 0
-1012 1084 0
-1063 1084 0
-1064 1084 0
-1065 1084 0
-1084 895 954 1011 1012 1063 1064 1065 0
-896 1085 0
-955 1085 0
-1012 1085 0
-1013 1085 0
-1064 1085 0
-1065 1085 0
-1085 896 955 1012 1013 1064 1065 0
-897 1086 0
-956 1086 0
-1013 1086 0
-1065 1086 0
-1086 897 956 1013 1065 0
-899 1087 0
-958 1087 0
-1015 1087 0
-1067 1087 0
-1087 899 958 1015 1067 0
-900 1088 0
-959 1088 0
-1015 1088 0
-1016 1088 0
-1067 1088 0
-1068 1088 0
-1088 900 959 1015 1016 1067 1068 0
-901 1089 0
-960 1089 0
-1016 1089 0
-1017 1089 0
-1067 1089 0
-1068 1089 0
-1069 1089 0
-1089 901 960 1016 1017 1067 1068 1069 0
-902 1090 0
-961 1090 0
-1017 1090 0
-1018 1090 0
-1068 1090 0
-1069 1090 0
-1070 1090 0
-1090 902 961 1017 1018 1068 1069 1070 0
-903 1091 0
-962 1091 0
-1018 1091 0
-1019 1091 0
-1069 1091 0
-1070 1091 0
-1091 903 962 1018 1019 1069 1070 0
-904 1092 0
-963 1092 0
-1019 1092 0
-1070 1092 0
-1092 904 963 1019 1070 0
-906 1093 0
-965 1093 0
-1021 1093 0
-1072 1093 0
-1093 906 965 1021 1072 0
-907 1094 0
-966 1094 0
-1021 1094 0
-1022 1094 0
-1072 1094 0
-1073 1094 0
-1094 907 966 1021 1022 1072 1073 0
-908 1095 0
-967 1095 0
-1022 1095 0
-1023 1095 0
-1072 1095 0
-1073 1095 0
-1074 1095 0
-1095 908 967 1022 1023 1072 1073 1074 0
-909 1096 0
-968 1096 0
-1023 1096 0
-1024 1096 0
-1073 1096 0
-1074 1096 0
-1075 1096 0
-1096 909 968 1023 1024 1073 1074 1075 0
-910 1097 0
-969 1097 0
-1024 1097 0
-1025 1097 0
-1074 1097 0
-1075 1097 0
-1097 910 969 1024 1025 1074 1075 0
-911 1098 0
-970 1098 0
-1025 1098 0
-1075 1098 0
-1098 911 970 1025 1075 0
-913 1099 0
-972 1099 0
-1027 1099 0
-1077 1099 0
-1099 913 972 1027 1077 0
-914 1100 0
-973 1100 0
-1027 1100 0
-1028 1100 0
-1077 1100 0
-1078 1100 0
-1100 914 973 1027 1028 1077 1078 0
-915 1101 0
-974 1101 0
-1028 1101 0
-1029 1101 0
-1077 1101 0
-1078 1101 0
-1079 1101 0
-1101 915 974 1028 1029 1077 1078 1079 0
-916 1102 0
-975 1102 0
-1029 1102 0
-1030 1102 0
-1078 1102 0
-1079 1102 0
-1080 1102 0
-1102 916 975 1029 1030 1078 1079 1080 0
-917 1103 0
-976 1103 0
-1030 1103 0
-1031 1103 0
-1079 1103 0
-1080 1103 0
-1103 917 976 1030 1031 1079 1080 0
-918 1104 0
-977 1104 0
-1031 1104 0
-1080 1104 0
-1104 918 977 1031 1080 0
-1113 1302 0
-1172 1302 0
-1230 1302 0
-1283 1302 0
-1302 1113 1172 1230 1283 0
-1114 1303 0
-1173 1303 0
-1230 1303 0
-1231 1303 0
-1283 1303 0
-1284 1303 0
-1303 1114 1173 1230 1231 1283 1284 0
-1115 1304 0
-1174 1304 0
-1231 1304 0
-1232 1304 0
-1283 1304 0
-1284 1304 0
-1285 1304 0
-1304 1115 1174 1231 1232 1283 1284 1285 0
-1116 1305 0
-1175 1305 0
-1232 1305 0
-1233 1305 0
-1284 1305 0
-1285 1305 0
-1286 1305 0
-1305 1116 1175 1232 1233 1284 1285 1286 0
-1117 1306 0
-1176 1306 0
-1233 1306 0
-1234 1306 0
-1285 1306 0
-1286 1306 0
-1306 1117 1176 1233 1234 1285 1286 0
-1118 1307 0
-1177 1307 0
-1234 1307 0
-1286 1307 0
-1307 1118 1177 1234 1286 0
-1120 1308 0
-1179 1308 0
-1236 1308 0
-1288 1308 0
-1308 1120 1179 1236 1288 0
-1121 1309 0
-1180 1309 0
-1236 1309 0
-1237 1309 0
-1288 1309 0
-1289 1309 0
-1309 1121 1180 1236 1237 1288 1289 0
-1122 1310 0
-1181 1310 0
-1237 1310 0
-1238 1310 0
-1288 1310 0
-1289 1310 0
-1290 1310 0
-1310 1122 1181 1237 1238 1288 1289 1290 0
-1123 1311 0
-1182 1311 0
-1238 1311 0
-1239 1311 0
-1289 1311 0
-1290 1311 0
-1291 1311 0
-1311 1123 1182 1238 1239 1289 1290 1291 0
-1124 1312 0
-1183 1312 0
-1239 1312 0
-1240 1312 0
-1290 1312 0
-1291 1312 0
-1312 1124 1183 1239 1240 1290 1291 0
-1125 1313 0
-1184 1313 0
-1240 1313 0
-1291 1313 0
-1313 1125 1184 1240 1291 0
-1127 1314 0
-1186 1314 0
-1242 1314 0
-1293 1314 0
-1314 1127 1186 1242 1293 0
-1128 1315 0
-1187 1315 0
-1242 1315 0
-1243 1315 0
-1293 1315 0
-1294 1315 0
-1315 1128 1187 1242 1243 1293 1294 0
-1129 1316 0
-1188 1316 0
-1243 1316 0
-1244 1316 0
-1293 1316 0
-1294 1316 0
-1295 1316 0
-1316 1129 1188 1243 1244 1293 1294 1295 0
-1130 1317 0
-1189 1317 0
-1244 1317 0
-1245 1317 0
-1294 1317 0
-1295 1317 0
-1296 1317 0
-1317 1130 1189 1244 1245 1294 1295 1296 0
-1131 1318 0
-1190 1318 0
-1245 1318 0
-1246 1318 0
-1295 1318 0
-1296 1318 0
-1318 1131 1190 1245 1246 1295 1296 0
-1132 1319 0
-1191 1319 0
-1246 1319 0
-1296 1319 0
-1319 1132 1191 1246 1296 0
-1134 1320 0
-1193 1320 0
-1248 1320 0
-1298 1320 0
-1320 1134 1193 1248 1298 0
-1135 1321 0
-1194 1321 0
-1248 1321 0
-1249 1321 0
-1298 1321 0
-1299 1321 0
-1321 1135 1194 1248 1249 1298 1299 0
-1136 1322 0
-1195 1322 0
-1249 1322 0
-1250 1322 0
-1298 1322 0
-1299 1322 0
-1300 1322 0
-1322 1136 1195 1249 1250 1298 1299 1300 0
-1137 1323 0
-1196 1323 0
-1250 1323 0
-1251 1323 0
-1299 1323 0
-1300 1323 0
-1301 1323 0
-1323 1137 1196 1250 1251 1299 1300 1301 0
-1138 1324 0
-1197 1324 0
-1251 1324 0
-1252 1324 0
-1300 1324 0
-1301 1324 0
-1324 1138 1197 1251 1252 1300 1301 0
-1139 1325 0
-1198 1325 0
-1252 1325 0
-1301 1325 0
-1325 1139 1198 1252 1301 0
-8 -67 0
-8 -125 0
-8 -178 0
-9 -68 0
-9 -125 0
-9 -126 0
-9 -178 0
-9 -179 0
-10 -69 0
-10 -126 0
-10 -127 0
-10 -178 0
-10 -179 0
-10 -180 0
-11 -70 0
-11 -127 0
-11 -128 0
-11 -179 0
-11 -180 0
-11 -181 0
-12 -71 0
-12 -128 0
-12 -129 0
-12 -180 0
-12 -181 0
-13 -72 0
-13 -129 0
-13 -181 0
-67 -125 0
-67 -178 0
-68 -125 0
-68 -126 0
-68 -178 0
-68 -179 0
-69 -126 0
-69 -127 0
-69 -178 0
-69 -179 0
-69 -180 0
-70 -127 0
-70 -128 0
-70 -179 0
-70 -180 0
-70 -181 0
-71 -128 0
-71 -129 0
-71 -180 0
-71 -181 0
-72 -129 0
-72 -181 0
-125 -178 0
-125 -179 0
-126 -178 0
-126 -179 0
-126 -180 0
-127 -178 0
-127 -179 0
-127 -180 0
-127 -181 0
-128 -179 0
-128 -180 0
-128 -181 0
-129 -180 0
-129 -181 0
-15 -74 0
-15 -131 0
-15 -183 0
-16 -75 0
-16 -131 0
-16 -132 0
-16 -183 0
-16 -184 0
-17 -76 0
-17 -132 0
-17 -133 0
-17 -183 0
-17 -184 0
-17 -185 0
-18 -77 0
-18 -133 0
-18 -134 0
-18 -184 0
-18 -185 0
-18 -186 0
-19 -78 0
-19 -134 0
-19 -135 0
-19 -185 0
-19 -186 0
-20 -79 0
-20 -135 0
-20 -186 0
-74 -131 0
-74 -183 0
-75 -131 0
-75 -132 0
-75 -183 0
-75 -184 0
-76 -132 0
-76 -133 0
-76 -183 0
-76 -184 0
-76 -185 0
-77 -133 0
-77 -134 0
-77 -184 0
-77 -185 0
-77 -186 0
-78 -134 0
-78 -135 0
-78 -185 0
-78 -186 0
-79 -135 0
-79 -186 0
-131 -183 0
-131 -184 0
-132 -183 0
-132 -184 0
-132 -185 0
-133 -183 0
-133 -184 0
-133 -185 0
-133 -186 0
-134 -184 0
-134 -185 0
-134 -186 0
-135 -185 0
-135 -186 0
-22 -81 0
-22 -137 0
-22 -188 0
-23 -82 0
-23 -137 0
-23 -138 0
-23 -188 0
-23 -189 0
-24 -83 0
-24 -138 0
-24 -139 0
-24 -188 0
-24 -189 0
-24 -190 0
-25 -84 0
-25 -139 0
-25 -140 0
-25 -189 0
-25 -190 0
-25 -191 0
-26 -85 0
-26 -140 0
-26 -141 0
-26 -190 0
-26 -191 0
-27 -86 0
-27 -141 0
-27 -191 0
-81 -137 0
-81 -188 0
-82 -137 0
-82 -138 0
-82 -188 0
-82 -189 0
-83 -138 0
-83 -139 0
-83 -188 0
-83 -189 0
-83 -190 0
-84 -139 0
-84 -140 0
-84 -189 0
-84 -190 0
-84 -191 0
-85 -140 0
-85 -141 0
-85 -190 0
-85 -191 0
-86 -141 0
-86 -191 0
-137 -188 0
-137 -189 0
-138 -188 0
-138 -189 0
-138 -190 0
-139 -188 0
-139 -189 0
-139 -190 0
-139 -191 0
-140 -189 0
-140 -190 0
-140 -191 0
-141 -190 0
-141 -191 0
-29 -88 0
-29 -143 0
-29 -193 0
-30 -89 0
-30 -143 0
-30 -144 0
-30 -193 0
-30 -194 0
-31 -90 0
-31 -144 0
-31 -145 0
-31 -193 0
-31 -194 0
-31 -195 0
-32 -91 0
-32 -145 0
-32 -146 0
-32 -194 0
-32 -195 0
-32 -196 0
-33 -92 0
-33 -146 0
-33 -147 0
-33 -195 0
-33 -196 0
-34 -93 0
-34 -147 0
-34 -196 0
-88 -143 0
-88 -193 0
-89 -143 0
-89 -144 0
-89 -193 0
-89 -194 0
-90 -144 0
-90 -145 0
-90 -193 0
-90 -194 0
-90 -195 0
-91 -145 0
-91 -146 0
-91 -194 0
-91 -195 0
-91 -196 0
-92 -146 0
-92 -147 0
-92 -195 0
-92 -196 0
-93 -147 0
-93 -196 0
-143 -193 0
-143 -194 0
-144 -193 0
-144 -194 0
-144 -195 0
-145 -193 0
-145 -194 0
-145 -195 0
-145 -196 0
-146 -194 0
-146 -195 0
-146 -196 0
-147 -195 0
-147 -196 0
-229 -288 0
-229 -346 0
-229 -399 0
-230 -289 0
-230 -346 0
-230 -347 0
-230 -399 0
-230 -400 0
-231 -290 0
-231 -347 0
-231 -348 0
-231 -399 0
-231 -400 0
-231 -401 0
-232 -291 0
-232 -348 0
-232 -349 0
-232 -400 0
-232 -401 0
-232 -402 0
-233 -292 0
-233 -349 0
-233 -350 0
-233 -401 0
-233 -402 0
-234 -293 0
-234 -350 0
-234 -402 0
-288 -346 0
-288 -399 0
-289 -346 0
-289 -347 0
-289 -399 0
-289 -400 0
-290 -347 0
-290 -348 0
-290 -399 0
-290 -400 0
-290 -401 0
-291 -348 0
-291 -349 0
-291 -400 0
-291 -401 0
-291 -402 0
-292 -349 0
-292 -350 0
-292 -401 0
-292 -402 0
-293 -350 0
-293 -402 0
-346 -399 0
-346 -400 0
-347 -399 0
-347 -400 0
-347 -401 0
-348 -399 0
-348 -400 0
-348 -401 0
-348 -402 0
-349 -400 0
-349 -401 0
-349 -402 0
-350 -401 0
-350 -402 0
-236 -295 0
-236 -352 0
-236 -404 0
-237 -296 0
-237 -352 0
-237 -353 0
-237 -404 0
-237 -405 0
-238 -297 0
-238 -353 0
-238 -354 0
-238 -404 0
-238 -405 0
-238 -406 0
-239 -298 0
-239 -354 0
-239 -355 0
-239 -405 0
-239 -406 0
-239 -407 0
-240 -299 0
-240 -355 0
-240 -356 0
-240 -406 0
-240 -407 0
-241 -300 0
-241 -356 0
-241 -407 0
-295 -352 0
-295 -404 0
-296 -352 0
-296 -353 0
-296 -404 0
-296 -405 0
-297 -353 0
-297 -354 0
-297 -404 0
-297 -405 0
-297 -406 0
-298 -354 0
-298 -355 0
-298 -405 0
-298 -406 0
-298 -407 0
-299 -355 0
-299 -356 0
-299 -406 0
-299 -407 0
-300 -356 0
-300 -407 0
-352 -404 0
-352 -405 0
-353 -404 0
-353 -405 0
-353 -406 0
-354 -404 0
-354 -405 0
-354 -406 0
-354 -407 0
-355 -405 0
-355 -406 0
-355 -407 0
-356 -406 0
-356 -407 0
-243 -302 0
-243 -358 0
-243 -409 0
-244 -303 0
-244 -358 0
-244 -359 0
-244 -409 0
-244 -410 0
-245 -304 0
-245 -359 0
-245 -360 0
-245 -409 0
-245 -410 0
-245 -411 0
-246 -305 0
-246 -360 0
-246 -361 0
-246 -410 0
-246 -411 0
-246 -412 0
-247 -306 0
-247 -361 0
-247 -362 0
-247 -411 0
-247 -412 0
-248 -307 0
-248 -362 0
-248 -412 0
-302 -358 0
-302 -409 0
-303 -358 0
-303 -359 0
-303 -409 0
-303 -410 0
-304 -359 0
-304 -360 0
-304 -409 0
-304 -410 0
-304 -411 0
-305 -360 0
-305 -361 0
-305 -410 0
-305 -411 0
-305 -412 0
-306 -361 0
-306 -362 0
-306 -411 0
-306 -412 0
-307 -362 0
-307 -412 0
-358 -409 0
-358 -410 0
-359 -409 0
-359 -410 0
-359 -411 0
-360 -409 0
-360 -410 0
-360 -411 0
-360 -412 0
-361 -410 0
-361 -411 0
-361 -412 0
-362 -411 0
-362 -412 0
-250 -309 0
-250 -364 0
-250 -414 0
-251 -310 0
-251 -364 0
-251 -365 0
-251 -414 0
-251 -415 0
-252 -311 0
-252 -365 0
-252 -366 0
-252 -414 0
-252 -415 0
-252 -416 0
-253 -312 0
-253 -366 0
-253 -367 0
-253 -415 0
-253 -416 0
-253 -417 0
-254 -313 0
-254 -367 0
-254 -368 0
-254 -416 0
-254 -417 0
-255 -314 0
-255 -368 0
-255 -417 0
-309 -364 0
-309 -414 0
-310 -364 0
-310 -365 0
-310 -414 0
-310 -415 0
-311 -365 0
-311 -366 0
-311 -414 0
-311 -415 0
-311 -416 0
-312 -366 0
-312 -367 0
-312 -415 0
-312 -416 0
-312 -417 0
-313 -367 0
-313 -368 0
-313 -416 0
-313 -417 0
-314 -368 0
-314 -417 0
-364 -414 0
-364 -415 0
-365 -414 0
-365 -415 0
-365 -416 0
-366 -414 0
-366 -415 0
-366 -416 0
-366 -417 0
-367 -415 0
-367 -416 0
-367 -417 0
-368 -416 0
-368 -417 0
-450 -509 0
-450 -567 0
-450 -620 0
-451 -510 0
-451 -567 0
-451 -568 0
-451 -620 0
-451 -621 0
-452 -511 0
-452 -568 0
-452 -569 0
-452 -620 0
-452 -621 0
-452 -622 0
-453 -512 0
-453 -569 0
-453 -570 0
-453 -621 0
-453 -622 0
-453 -623 0
-454 -513 0
-454 -570 0
-454 -571 0
-454 -622 0
-454 -623 0
-455 -514 0
-455 -571 0
-455 -623 0
-509 -567 0
-509 -620 0
-510 -567 0
-510 -568 0
-510 -620 0
-510 -621 0
-511 -568 0
-511 -569 0
-511 -620 0
-511 -621 0
-511 -622 0
-512 -569 0
-512 -570 0
-512 -621 0
-512 -622 0
-512 -623 0
-513 -570 0
-513 -571 0
-513 -622 0
-513 -623 0
-514 -571 0
-514 -623 0
-567 -620 0
-567 -621 0
-568 -620 0
-568 -621 0
-568 -622 0
-569 -620 0
-569 -621 0
-569 -622 0
-569 -623 0
-570 -621 0
-570 -622 0
-570 -623 0
-571 -622 0
-571 -623 0
-457 -516 0
-457 -573 0
-457 -625 0
-458 -517 0
-458 -573 0
-458 -574 0
-458 -625 0
-458 -626 0
-459 -518 0
-459 -574 0
-459 -575 0
-459 -625 0
-459 -626 0
-459 -627 0
-460 -519 0
-460 -575 0
-460 -576 0
-460 -626 0
-460 -627 0
-460 -628 0
-461 -520 0
-461 -576 0
-461 -577 0
-461 -627 0
-461 -628 0
-462 -521 0
-462 -577 0
-462 -628 0
-516 -573 0
-516 -625 0
-517 -573 0
-517 -574 0
-517 -625 0
-517 -626 0
-518 -574 0
-518 -575 0
-518 -625 0
-518 -626 0
-518 -627 0
-519 -575 0
-519 -576 0
-519 -626 0
-519 -627 0
-519 -628 0
-520 -576 0
-520 -577 0
-520 -627 0
-520 -628 0
-521 -577 0
-521 -628 0
-573 -625 0
-573 -626 0
-574 -625 0
-574 -626 0
-574 -627 0
-575 -625 0
-575 -626 0
-575 -627 0
-575 -628 0
-576 -626 0
-576 -627 0
-576 -628 0
-577 -627 0
-577 -628 0
-464 -523 0
-464 -579 0
-464 -630 0
-465 -524 0
-465 -579 0
-465 -580 0
-465 -630 0
-465 -631 0
-466 -525 0
-466 -580 0
-466 -581 0
-466 -630 0
-466 -631 0
-466 -632 0
-467 -526 0
-467 -581 0
-467 -582 0
-467 -631 0
-467 -632 0
-467 -633 0
-468 -527 0
-468 -582 0
-468 -583 0
-468 -632 0
-468 -633 0
-469 -528 0
-469 -583 0
-469 -633 0
-523 -579 0
-523 -630 0
-524 -579 0
-524 -580 0
-524 -630 0
-524 -631 0
-525 -580 0
-525 -581 0
-525 -630 0
-525 -631 0
-525 -632 0
-526 -581 0
-526 -582 0
-526 -631 0
-526 -632 0
-526 -633 0
-527 -582 0
-527 -583 0
-527 -632 0
-527 -633 0
-528 -583 0
-528 -633 0
-579 -630 0
-579 -631 0
-580 -630 0
-580 -631 0
-580 -632 0
-581 -630 0
-581 -631 0
-581 -632 0
-581 -633 0
-582 -631 0
-582 -632 0
-582 -633 0
-583 -632 0
-583 -633 0
-471 -530 0
-471 -585 0
-471 -635 0
-472 -531 0
-472 -585 0
-472 -586 0
-472 -635 0
-472 -636 0
-473 -532 0
-473 -586 0
-473 -587 0
-473 -635 0
-473 -636 0
-473 -637 0
-474 -533 0
-474 -587 0
-474 -588 0
-474 -636 0
-474 -637 0
-474 -638 0
-475 -534 0
-475 -588 0
-475 -589 0
-475 -637 0
-475 -638 0
-476 -535 0
-476 -589 0
-476 -638 0
-530 -585 0
-530 -635 0
-531 -585 0
-531 -586 0
-531 -635 0
-531 -636 0
-532 -586 0
-532 -587 0
-532 -635 0
-532 -636 0
-532 -637 0
-533 -587 0
-533 -588 0
-533 -636 0
-533 -637 0
-533 -638 0
-534 -588 0
-534 -589 0
-534 -637 0
-534 -638 0
-535 -589 0
-535 -638 0
-585 -635 0
-585 -636 0
-586 -635 0
-586 -636 0
-586 -637 0
-587 -635 0
-587 -636 0
-587 -637 0
-587 -638 0
-588 -636 0
-588 -637 0
-588 -638 0
-589 -637 0
-589 -638 0
-671 -730 0
-671 -788 0
-671 -841 0
-672 -731 0
-672 -788 0
-672 -789 0
-672 -841 0
-672 -842 0
-673 -732 0
-673 -789 0
-673 -790 0
-673 -841 0
-673 -842 0
-673 -843 0
-674 -733 0
-674 -790 0
-674 -791 0
-674 -842 0
-674 -843 0
-674 -844 0
-675 -734 0
-675 -791 0
-675 -792 0
-675 -843 0
-675 -844 0
-676 -735 0
-676 -792 0
-676 -844 0
-730 -788 0
-730 -841 0
-731 -788 0
-731 -789 0
-731 -841 0
-731 -842 0
-732 -789 0
-732 -790 0
-732 -841 0
-732 -842 0
-732 -843 0
-733 -790 0
-733 -791 0
-733 -842 0
-733 -843 0
-733 -844 0
-734 -791 0
-734 -792 0
-734 -843 0
-734 -844 0
-735 -792 0
-735 -844 0
-788 -841 0
-788 -842 0
-789 -841 0
-789 -842 0
-789 -843 0
-790 -841 0
-790 -842 0
-790 -843 0
-790 -844 0
-791 -842 0
-791 -843 0
-791 -844 0
-792 -843 0
-792 -844 0
-678 -737 0
-678 -794 0
-678 -846 0
-679 -738 0
-679 -794 0
-679 -795 0
-679 -846 0
-679 -847 0
-680 -739 0
-680 -795 0
-680 -796 0
-680 -846 0
-680 -847 0
-680 -848 0
-681 -740 0
-681 -796 0
-681 -797 0
-681 -847 0
-681 -848 0
-681 -849 0
-682 -741 0
-682 -797 0
-682 -798 0
-682 -848 0
-682 -849 0
-683 -742 0
-683 -798 0
-683 -849 0
-737 -794 0
-737 -846 0
-738 -794 0
-738 -795 0
-738 -846 0
-738 -847 0
-739 -795 0
-739 -796 0
-739 -846 0
-739 -847 0
-739 -848 0
-740 -796 0
-740 -797 0
-740 -847 0
-740 -848 0
-740 -849 0
-741 -797 0
-741 -798 0
-741 -848 0
-741 -849 0
-742 -798 0
-742 -849 0
-794 -846 0
-794 -847 0
-795 -846 0
-795 -847 0
-795 -848 0
-796 -846 0
-796 -847 0
-796 -848 0
-796 -849 0
-797 -847 0
-797 -848 0
-797 -849 0
-798 -848 0
-798 -849 0
-685 -744 0
-685 -800 0
-685 -851 0
-686 -745 0
-686 -800 0
-686 -801 0
-686 -851 0
-686 -852 0
-687 -746 0
-687 -801 0
-687 -802 0
-687 -851 0
-687 -852 0
-687 -853 0
-688 -747 0
-688 -802 0
-688 -803 0
-688 -852 0
-688 -853 0
-688 -854 0
-689 -748 0
-689 -803 0
-689 -804 0
-689 -853 0
-689 -854 0
-690 -749 0
-690 -804 0
-690 -854 0
-744 -800 0
-744 -851 0
-745 -800 0
-745 -801 0
-745 -851 0
-745 -852 0
-746 -801 0
-746 -802 0
-746 -851 0
-746 -852 0
-746 -853 0
-747 -802 0
-747 -803 0
-747 -852 0
-747 -853 0
-747 -854 0
-748 -803 0
-748 -804 0
-748 -853 0
-748 -854 0
-749 -804 0
-749 -854 0
-800 -851 0
-800 -852 0
-801 -851 0
-801 -852 0
-801 -853 0
-802 -851 0
-802 -852 0
-802 -853 0
-802 -854 0
-803 -852 0
-803 -853 0
-803 -854 0
-804 -853 0
-804 -854 0
-692 -751 0
-692 -806 0
-692 -856 0
-693 -752 0
-693 -806 0
-693 -807 0
-693 -856 0
-693 -857 0
-694 -753 0
-694 -807 0
-694 -808 0
-694 -856 0
-694 -857 0
-694 -858 0
-695 -754 0
-695 -808 0
-695 -809 0
-695 -857 0
-695 -858 0
-695 -859 0
-696 -755 0
-696 -809 0
-696 -810 0
-696 -858 0
-696 -859 0
-697 -756 0
-697 -810 0
-697 -859 0
-751 -806 0
-751 -856 0
-752 -806 0
-752 -807 0
-752 -856 0
-752 -857 0
-753 -807 0
-753 -808 0
-753 -856 0
-753 -857 0
-753 -858 0
-754 -808 0
-754 -809 0
-754 -857 0
-754 -858 0
-754 -859 0
-755 -809 0
-755 -810 0
-755 -858 0
-755 -859 0
-756 -810 0
-756 -859 0
-806 -856 0
-806 -857 0
-807 -856 0
-807 -857 0
-807 -858 0
-808 -856 0
-808 -857 0
-808 -858 0
-808 -859 0
-809 -857 0
-809 -858 0
-809 -859 0
-810 -858 0
-810 -859 0
-892 -951 0
-892 -1009 0
-892 -1062 0
-893 -952 0
-893 -1009 0
-893 -1010 0
-893 -1062 0
-893 -1063 0
-894 -953 0
-894 -1010 0
-894 -1011 0
-894 -1062 0
-894 -1063 0
-894 -1064 0
-895 -954 0
-895 -1011 0
-895 -1012 0
-895 -1063 0
-895 -1064 0
-895 -1065 0
-896 -955 0
-896 -1012 0
-896 -1013 0
-896 -1064 0
-896 -1065 0
-897 -956 0
-897 -1013 0
-897 -1065 0
-951 -1009 0
-951 -1062 0
-952 -1009 0
-952 -1010 0
-952 -1062 0
-952 -1063 0
-953 -1010 0
-953 -1011 0
-953 -1062 0
-953 -1063 0
-953 -1064 0
-954 -1011 0
-954 -1012 0
-954 -1063 0
-954 -1064 0
-954 -1065 0
-955 -1012 0
-955 -1013 0
-955 -1064 0
-955 -1065 0
-956 -1013 0
-956 -1065 0
-1009 -1062 0
-1009 -1063 0
-1010 -1062 0
-1010 -1063 0
-1010 -1064 0
-1011 -1062 0
-1011 -1063 0
-1011 -1064 0
-1011 -1065 0
-1012 -1063 0
-1012 -1064 0
-1012 -1065 0
-1013 -1064 0
-1013 -1065 0
-899 -958 0
-899 -1015 0
-899 -1067 0
-900 -959 0
-900 -1015 0
-900 -1016 0
-900 -1067 0
-900 -1068 0
-901 -960 0
-901 -1016 0
-901 -1017 0
-901 -1067 0
-901 -1068 0
-901 -1069 0
-902 -961 0
-902 -1017 0
-902 -1018 0
-902 -1068 0
-902 -1069 0
-902 -1070 0
-903 -962 0
-903 -1018 0
-903 -1019 0
-903 -1069 0
-903 -1070 0
-904 -963 0
-904 -1019 0
-904 -1070 0
-958 -1015 0
-958 -1067 0
-959 -1015 0
-959 -1016 0
-959 -1067 0
-959 -1068 0
-960 -1016 0
-960 -1017 0
-960 -1067 0
-960 -1068 0
-960 -1069 0
-961 -1017 0
-961 -1018 0
-961 -1068 0
-961 -1069 0
-961 -1070 0
-962 -1018 0
-962 -1019 0
-962 -1069 0
-962 -1070 0
-963 -1019 0
-963 -1070 0
-1015 -1067 0
-1015 -1068 0
-1016 -1067 0
-1016 -1068 0
-1016 -1069 0
-1017 -1067 0
-1017 -1068 0
-1017 -1069 0
-1017 -1070 0
-1018 -1068 0
-1018 -1069 0
-1018 -1070 0
-1019 -1069 0
-1019 -1070 0
-906 -965 0
-906 -1021 0
-906 -1072 0
-907 -966 0
-907 -1021 0
-907 -1022 0
-907 -1072 0
-907 -1073 0
-908 -967 0
-908 -1022 0
-908 -1023 0
-908 -1072 0
-908 -1073 0
-908 -1074 0
-909 -968 0
-909 -1023 0
-909 -1024 0
-909 -1073 0
-909 -1074 0
-909 -1075 0
-910 -969 0
-910 -1024 0
-910 -1025 0
-910 -1074 0
-910 -1075 0
-911 -970 0
-911 -1025 0
-911 -1075 0
-965 -1021 0
-965 -1072 0
-966 -1021 0
-966 -1022 0
-966 -1072 0
-966 -1073 0
-967 -1022 0
-967 -1023 0
-967 -1072 0
-967 -1073 0
-967 -1074 0
-968 -1023 0
-968 -1024 0
-968 -1073 0
-968 -1074 0
-968 -1075 0
-969 -1024 0
-969 -1025 0
-969 -1074 0
-969 -1075 0
-970 -1025 0
-970 -1075 0
-1021 -1072 0
-1021 -1073 0
-1022 -1072 0
-1022 -1073 0
-1022 -1074 0
-1023 -1072 0
-1023 -1073 0
-1023 -1074 0
-1023 -1075 0
-1024 -1073 0
-1024 -1074 0
-1024 -1075 0
-1025 -1074 0
-1025 -1075 0
-913 -972 0
-913 -1027 0
-913 -1077 0
-914 -973 0
-914 -1027 0
-914 -1028 0
-914 -1077 0
-914 -1078 0
-915 -974 0
-915 -1028 0
-915 -1029 0
-915 -1077 0
-915 -1078 0
-915 -1079 0
-916 -975 0
-916 -1029 0
-916 -1030 0
-916 -1078 0
-916 -1079 0
-916 -1080 0
-917 -976 0
-917 -1030 0
-917 -1031 0
-917 -1079 0
-917 -1080 0
-918 -977 0
-918 -1031 0
-918 -1080 0
-972 -1027 0
-972 -1077 0
-973 -1027 0
-973 -1028 0
-973 -1077 0
-973 -1078 0
-974 -1028 0
-974 -1029 0
-974 -1077 0
-974 -1078 0
-974 -1079 0
-975 -1029 0
-975 -1030 0
-975 -1078 0
-975 -1079 0
-975 -1080 0
-976 -1030 0
-976 -1031 0
-976 -1079 0
-976 -1080 0
-977 -1031 0
-977 -1080 0
-1027 -1077 0
-1027 -1078 0
-1028 -1077 0
-1028 -1078 0
-1028 -1079 0
-1029 -1077 0
-1029 -1078 0
-1029 -1079 0
-1029 -1080 0
-1030 -1078 0
-1030 -1079 0
-1030 -1080 0
-1031 -1079 0
-1031 -1080 0
-1113 -1172 0
-1113 -1230 0
-1113 -1283 0
-1114 -1173 0
-1114 -1230 0
-1114 -1231 0
-1114 -1283 0
-1114 -1284 0
-1115 -1174 0
-1115 -1231 0
-1115 -1232 0
-1115 -1283 0
-1115 -1284 0
-1115 -1285 0
-1116 -1175 0
-1116 -1232 0
-1116 -1233 0
-1116 -1284 0
-1116 -1285 0
-1116 -1286 0
-1117 -1176 0
-1117 -1233 0
-1117 -1234 0
-1117 -1285 0
-1117 -1286 0
-1118 -1177 0
-1118 -1234 0
-1118 -1286 0
-1172 -1230 0
-1172 -1283 0
-1173 -1230 0
-1173 -1231 0
-1173 -1283 0
-1173 -1284 0
-1174 -1231 0
-1174 -1232 0
-1174 -1283 0
-1174 -1284 0
-1174 -1285 0
-1175 -1232 0
-1175 -1233 0
-1175 -1284 0
-1175 -1285 0
-1175 -1286 0
-1176 -1233 0
-1176 -1234 0
-1176 -1285 0
-1176 -1286 0
-1177 -1234 0
-1177 -1286 0
-1230 -1283 0
-1230 -1284 0
-1231 -1283 0
-1231 -1284 0
-1231 -1285 0
-1232 -1283 0
-1232 -1284 0
-1232 -1285 0
-1232 -1286 0
-1233 -1284 0
-1233 -1285 0
-1233 -1286 0
-1234 -1285 0
-1234 -1286 0
-1120 -1179 0
-1120 -1236 0
-1120 -1288 0
-1121 -1180 0
-1121 -1236 0
-1121 -1237 0
-1121 -1288 0
-1121 -1289 0
-1122 -1181 0
-1122 -1237 0
-1122 -1238 0
-1122 -1288 0
-1122 -1289 0
-1122 -1290 0
-1123 -1182 0
-1123 -1238 0
-1123 -1239 0
-1123 -1289 0
-1123 -1290 0
-1123 -1291 0
-1124 -1183 0
-1124 -1239 0
-1124 -1240 0
-1124 -1290 0
-1124 -1291 0
-1125 -1184 0
-1125 -1240 0
-1125 -1291 0
-1179 -1236 0
-1179 -1288 0
-1180 -1236 0
-1180 -1237 0
-1180 -1288 0
-1180 -1289 0
-1181 -1237 0
-1181 -1238 0
-1181 -1288 0
-1181 -1289 0
-1181 -1290 0
-1182 -1238 0
-1182 -1239 0
-1182 -1289 0
-1182 -1290 0
-1182 -1291 0
-1183 -1239 0
-1183 -1240 0
-1183 -1290 0
-1183 -1291 0
-1184 -1240 0
-1184 -1291 0
-1236 -1288 0
-1236 -1289 0
-1237 -1288 0
-1237 -1289 0
-1237 -1290 0
-1238 -1288 0
-1238 -1289 0
-1238 -1290 0
-1238 -1291 0
-1239 -1289 0
-1239 -1290 0
-1239 -1291 0
-1240 -1290 0
-1240 -1291 0
-1127 -1186 0
-1127 -1242 0
-1127 -1293 0
-1128 -1187 0
-1128 -1242 0
-1128 -1243 0
-1128 -1293 0
-1128 -1294 0
-1129 -1188 0
-1129 -1243 0
-1129 -1244 0
-1129 -1293 0
-1129 -1294 0
-1129 -1295 0
-1130 -1189 0
-1130 -1244 0
-1130 -1245 0
-1130 -1294 0
-1130 -1295 0
-1130 -1296 0
-1131 -1190 0
-1131 -1245 0
-1131 -1246 0
-1131 -1295 0
-1131 -1296 0
-1132 -1191 0
-1132 -1246 0
-1132 -1296 0
-1186 -1242 0
-1186 -1293 0
-1187 -1242 0
-1187 -1243 0
-1187 -1293 0
-1187 -1294 0
-1188 -1243 0
-1188 -1244 0
-1188 -1293 0
-1188 -1294 0
-1188 -1295 0
-1189 -1244 0
-1189 -1245 0
-1189 -1294 0
-1189 -1295 0
-1189 -1296 0
-1190 -1245 0
-1190 -1246 0
-1190 -1295 0
-1190 -1296 0
-1191 -1246 0
-1191 -1296 0
-1242 -1293 0
-1242 -1294 0
-1243 -1293 0
-1243 -1294 0
-1243 -1295 0
-1244 -1293 0
-1244 -1294 0
-1244 -1295 0
-1244 -1296 0
-1245 -1294 0
-1245 -1295 0
-1245 -1296 0
-1246 -1295 0
-1246 -1296 0
-1134 -1193 0
-1134 -1248 0
-1134 -1298 0
-1135 -1194 0
-1135 -1248 0
-1135 -1249 0
-1135 -1298 0
-1135 -1299 0
-1136 -1195 0
-1136 -1249 0
-1136 -1250 0
-1136 -1298 0
-1136 -1299 0
-1136 -1300 0
-1137 -1196 0
-1137 -1250 0
-1137 -1251 0
-1137 -1299 0
-1137 -1300 0
-1137 -1301 0
-1138 -1197 0
-1138 -1251 0
-1138 -1252 0
-1138 -1300 0
-1138 -1301 0
-1139 -1198 0
-1139 -1252 0
-1139 -1301 0
-1193 -1248 0
-1193 -1298 0
-1194 -1248 0
-1194 -1249 0
-1194 -1298 0
-1194 -1299 0
-1195 -1249 0
-1195 -1250 0
-1195 -1298 0
-1195 -1299 0
-1195 -1300 0
-1196 -1250 0
-1196 -1251 0
-1196 -1299 0
-1196 -1300 0
-1196 -1301 0
-1197 -1251 0
-1197 -1252 0
-1197 -1300 0
-1197 -1301 0
-1198 -1252 0
-1198 -1301 0
-1248 -1298 0
-1248 -1299 0
-1249 -1298 0
-1249 -1299 0
-1249 -1300 0
-1250 -1298 0
-1250 -1299 0
-1250 -1300 0
-1250 -1301 0
-1251 -1299 0
-1251 -1300 0
-1251 -1301 0
-1252 -1300 0
-1252 -1301 0
-15 197 0
-22 203 0
-29 209 0
-16 198 0
-23 204 0
-30 210 0
-17 199 0
-24 205 0
-31 211 0
-18 200 0
-25 206 0
-32 212 0
-19 201 0
-26 207 0
-33 213 0
-20 202 0
-27 208 0
-34 214 0
-74 197 0
-81 203 0
-88 209 0
-75 198 0
-82 204 0
-89 210 0
-76 199 0
-83 205 0
-90 211 0
-77 200 0
-84 206 0
-91 212 0
-78 201 0
-85 207 0
-92 213 0
-79 202 0
-86 208 0
-93 214 0
-131 197 198 0
-137 203 204 0
-143 209 210 0
-132 198 199 0
-138 204 205 0
-144 210 211 0
-133 199 200 0
-139 205 206 0
-145 211 212 0
-134 200 201 0
-140 206 207 0
-146 212 213 0
-135 201 202 0
-141 207 208 0
-147 213 214 0
-183 197 198 0
-183 197 199 0
-183 198 199 0
-188 203 204 0
-188 203 205 0
-188 204 205 0
-193 209 210 0
-193 209 211 0
-193 210 211 0
-184 198 199 0
-184 198 200 0
-184 199 200 0
-189 204 205 0
-189 204 206 0
-189 205 206 0
-194 210 211 0
-194 210 212 0
-194 211 212 0
-185 199 200 0
-185 199 201 0
-185 200 201 0
-190 205 206 0
-190 205 207 0
-190 206 207 0
-195 211 212 0
-195 211 213 0
-195 212 213 0
-186 200 201 0
-186 200 202 0
-186 201 202 0
-191 206 207 0
-191 206 208 0
-191 207 208 0
-196 212 213 0
-196 212 214 0
-196 213 214 0
-236 418 0
-243 424 0
-250 430 0
-237 419 0
-244 425 0
-251 431 0
-238 420 0
-245 426 0
-252 432 0
-239 421 0
-246 427 0
-253 433 0
-240 422 0
-247 428 0
-254 434 0
-241 423 0
-248 429 0
-255 435 0
-295 418 0
-302 424 0
-309 430 0
-296 419 0
-303 425 0
-310 431 0
-297 420 0
-304 426 0
-311 432 0
-298 421 0
-305 427 0
-312 433 0
-299 422 0
-306 428 0
-313 434 0
-300 423 0
-307 429 0
-314 435 0
-352 418 419 0
-358 424 425 0
-364 430 431 0
-353 419 420 0
-359 425 426 0
-365 431 432 0
-354 420 421 0
-360 426 427 0
-366 432 433 0
-355 421 422 0
-361 427 428 0
-367 433 434 0
-356 422 423 0
-362 428 429 0
-368 434 435 0
-404 418 419 0
-404 418 420 0
-404 419 420 0
-409 424 425 0
-409 424 426 0
-409 425 426 0
-414 430 431 0
-414 430 432 0
-414 431 432 0
-405 419 420 0
-405 419 421 0
-405 420 421 0
-410 425 426 0
-410 425 427 0
-410 426 427 0
-415 431 432 0
-415 431 433 0
-415 432 433 0
-406 420 421 0
-406 420 422 0
-406 421 422 0
-411 426 427 0
-411 426 428 0
-411 427 428 0
-416 432 433 0
-416 432 434 0
-416 433 434 0
-407 421 422 0
-407 421 423 0
-407 422 423 0
-412 427 428 0
-412 427 429 0
-412 428 429 0
-417 433 434 0
-417 433 435 0
-417 434 435 0
-457 639 0
-464 645 0
-471 651 0
-458 640 0
-465 646 0
-472 652 0
-459 641 0
-466 647 0
-473 653 0
-460 642 0
-467 648 0
-474 654 0
-461 643 0
-468 649 0
-475 655 0
-462 644 0
-469 650 0
-476 656 0
-516 639 0
-523 645 0
-530 651 0
-517 640 0
-524 646 0
-531 652 0
-518 641 0
-525 647 0
-532 653 0
-519 642 0
-526 648 0
-533 654 0
-520 643 0
-527 649 0
-534 655 0
-521 644 0
-528 650 0
-535 656 0
-573 639 640 0
-579 645 646 0
-585 651 652 0
-574 640 641 0
-580 646 647 0
-586 652 653 0
-575 641 642 0
-581 647 648 0
-587 653 654 0
-576 642 643 0
-582 648 649 0
-588 654 655 0
-577 643 644 0
-583 649 650 0
-589 655 656 0
-625 639 640 0
-625 639 641 0
-625 640 641 0
-630 645 646 0
-630 645 647 0
-630 646 647 0
-635 651 652 0
-635 651 653 0
-635 652 653 0
-626 640 641 0
-626 640 642 0
-626 641 642 0
-631 646 647 0
-631 646 648 0
-631 647 648 0
-636 652 653 0
-636 652 654 0
-636 653 654 0
-627 641 642 0
-627 641 643 0
-627 642 643 0
-632 647 648 0
-632 647 649 0
-632 648 649 0
-637 653 654 0
-637 653 655 0
-637 654 655 0
-628 642 643 0
-628 642 644 0
-628 643 644 0
-633 648 649 0
-633 648 650 0
-633 649 650 0
-638 654 655 0
-638 654 656 0
-638 655 656 0
-678 860 0
-685 866 0
-692 872 0
-679 861 0
-686 867 0
-693 873 0
-680 862 0
-687 868 0
-694 874 0
-681 863 0
-688 869 0
-695 875 0
-682 864 0
-689 870 0
-696 876 0
-683 865 0
-690 871 0
-697 877 0
-737 860 0
-744 866 0
-751 872 0
-738 861 0
-745 867 0
-752 873 0
-739 862 0
-746 868 0
-753 874 0
-740 863 0
-747 869 0
-754 875 0
-741 864 0
-748 870 0
-755 876 0
-742 865 0
-749 871 0
-756 877 0
-794 860 861 0
-800 866 867 0
-806 872 873 0
-795 861 862 0
-801 867 868 0
-807 873 874 0
-796 862 863 0
-802 868 869 0
-808 874 875 0
-797 863 864 0
-803 869 870 0
-809 875 876 0
-798 864 865 0
-804 870 871 0
-810 876 877 0
-846 860 861 0
-846 860 862 0
-846 861 862 0
-851 866 867 0
-851 866 868 0
-851 867 868 0
-856 872 873 0
-856 872 874 0
-856 873 874 0
-847 861 862 0
-847 861 863 0
-847 862 863 0
-852 867 868 0
-852 867 869 0
-852 868 869 0
-857 873 874 0
-857 873 875 0
-857 874 875 0
-848 862 863 0
-848 862 864 0
-848 863 864 0
-853 868 869 0
-853 868 870 0
-853 869 870 0
-858 874 875 0
-858 874 876 0
-858 875 876 0
-849 863 864 0
-849 863 865 0
-849 864 865 0
-854 869 870 0
-854 869 871 0
-854 870 871 0
-859 875 876 0
-859 875 877 0
-859 876 877 0
-899 1081 0
-906 1087 0
-913 1093 0
-900 1082 0
-907 1088 0
-914 1094 0
-901 1083 0
-908 1089 0
-915 1095 0
-902 1084 0
-909 1090 0
-916 1096 0
-903 1085 0
-910 1091 0
-917 1097 0
-904 1086 0
-911 1092 0
-918 1098 0
-958 1081 0
-965 1087 0
-972 1093 0
-959 1082 0
-966 1088 0
-973 1094 0
-960 1083 0
-967 1089 0
-974 1095 0
-961 1084 0
-968 1090 0
-975 1096 0
-962 1085 0
-969 1091 0
-976 1097 0
-963 1086 0
-970 1092 0
-977 1098 0
-1015 1081 1082 0
-1021 1087 1088 0
-1027 1093 1094 0
-1016 1082 1083 0
-1022 1088 1089 0
-1028 1094 1095 0
-1017 1083 1084 0
-1023 1089 1090 0
-1029 1095 1096 0
-1018 1084 1085 0
-1024 1090 1091 0
-1030 1096 1097 0
-1019 1085 1086 0
-1025 1091 1092 0
-1031 1097 1098 0
-1067 1081 1082 0
-1067 1081 1083 0
-1067 1082 1083 0
-1072 1087 1088 0
-1072 1087 1089 0
-1072 1088 1089 0
-1077 1093 1094 0
-1077 1093 1095 0
-1077 1094 1095 0
-1068 1082 1083 0
-1068 1082 1084 0
-1068 1083 1084 0
-1073 1088 1089 0
-1073 1088 1090 0
-1073 1089 1090 0
-1078 1094 1095 0
-1078 1094 1096 0
-1078 1095 1096 0
-1069 1083 1084 0
-1069 1083 1085 0
-1069 1084 1085 0
-1074 1089 1090 0
-1074 1089 1091 0
-1074 1090 1091 0
-1079 1095 1096 0
-1079 1095 1097 0
-1079 1096 1097 0
-1070 1084 1085 0
-1070 1084 1086 0
-1070 1085 1086 0
-1075 1090 1091 0
-1075 1090 1092 0
-1075 1091 1092 0
-1080 1096 1097 0
-1080 1096 1098 0
-1080 1097 1098 0
-1120 1302 0
-1127 1308 0
-1134 1314 0
-1121 1303 0
-1128 1309 0
-1135 1315 0
-1122 1304 0
-1129 1310 0
-1136 1316 0
-1123 1305 0
-1130 1311 0
-1137 1317 0
-1124 1306 0
-1131 1312 0
-1138 1318 0
-1125 1307 0
-1132 1313 0
-1139 1319 0
-1179 1302 0
-1186 1308 0
-1193 1314 0
-1180 1303 0
-1187 1309 0
-1194 1315 0
-1181 1304 0
-1188 1310 0
-1195 1316 0
-1182 1305 0
-1189 1311 0
-1196 1317 0
-1183 1306 0
-1190 1312 0
-1197 1318 0
-1184 1307 0
-1191 1313 0
-1198 1319 0
-1236 1302 1303 0
-1242 1308 1309 0
-1248 1314 1315 0
-1237 1303 1304 0
-1243 1309 1310 0
-1249 1315 1316 0
-1238 1304 1305 0
-1244 1310 1311 0
-1250 1316 1317 0
-1239 1305 1306 0
-1245 1311 1312 0
-1251 1317 1318 0
-1240 1306 1307 0
-1246 1312 1313 0
-1252 1318 1319 0
-1288 1302 1303 0
-1288 1302 1304 0
-1288 1303 1304 0
-1293 1308 1309 0
-1293 1308 1310 0
-1293 1309 1310 0
-1298 1314 1315 0
-1298 1314 1316 0
-1298 1315 1316 0
-1289 1303 1304 0
-1289 1303 1305 0
-1289 1304 1305 0
-1294 1309 1310 0
-1294 1309 1311 0
-1294 1310 1311 0
-1299 1315 1316 0
-1299 1315 1317 0
-1299 1316 1317 0
-1290 1304 1305 0
-1290 1304 1306 0
-1290 1305 1306 0
-1295 1310 1311 0
-1295 1310 1312 0
-1295 1311 1312 0
-1300 1316 1317 0
-1300 1316 1318 0
-1300 1317 1318 0
-1291 1305 1306 0
-1291 1305 1307 0
-1291 1306 1307 0
-1296 1311 1312 0
-1296 1311 1313 0
-1296 1312 1313 0
-1301 1317 1318 0
-1301 1317 1319 0
-1301 1318 1319 0
-8 -74 -59 0
-8 -81 -59 0
-8 -88 -59 0
-8 -131 -59 0
-8 -137 -59 0
-8 -143 -59 0
-8 -183 -59 0
-8 -188 -59 0
-8 -193 -59 0
-8 74 81 88 131 137 143 183 188 193 59 0
-15 -81 -59 0
-15 -88 -59 0
-15 -137 -59 0
-15 -143 -59 0
-15 -188 -59 0
-15 -193 -59 0
-15 81 88 137 143 188 193 59 0
-22 -88 -59 0
-22 -143 -59 0
-22 -193 -59 0
-22 88 143 193 59 0
-29 59 0
-9 -75 -59 0
-9 -82 -59 0
-9 -89 -59 0
-9 -131 -59 0
-9 -137 -59 0
-9 -143 -59 0
-9 -132 -59 0
-9 -138 -59 0
-9 -144 -59 0
-9 -183 -59 0
-9 -188 -59 0
-9 -193 -59 0
-9 -184 -59 0
-9 -189 -59 0
-9 -194 -59 0
-9 75 82 89 131 137 143 132 138 144 183 188 193 184 189 194 59 0
-16 -82 -59 0
-16 -89 -59 0
-16 -137 -59 0
-16 -143 -59 0
-16 -138 -59 0
-16 -144 -59 0
-16 -188 -59 0
-16 -193 -59 0
-16 -189 -59 0
-16 -194 -59 0
-16 82 89 137 143 138 144 188 193 189 194 59 0
-23 -89 -59 0
-23 -143 -59 0
-23 -144 -59 0
-23 -193 -59 0
-23 -194 -59 0
-23 89 143 144 193 194 59 0
-30 59 0
-10 -76 -59 0
-10 -83 -59 0
-10 -90 -59 0
-10 -132 -59 0
-10 -138 -59 0
-10 -144 -59 0
-10 -133 -59 0
-10 -139 -59 0
-10 -145 -59 0
-10 -183 -59 0
-10 -188 -59 0
-10 -193 -59 0
-10 -184 -59 0
-10 -189 -59 0
-10 -194 -59 0
-10 -185 -59 0
-10 -190 -59 0
-10 -195 -59 0
-10 76 83 90 132 138 144 133 139 145 183 188 193 184 189 194 185 190 195 59 0
-17 -83 -59 0
-17 -90 -59 0
-17 -138 -59 0
-17 -144 -59 0
-17 -139 -59 0
-17 -145 -59 0
-17 -188 -59 0
-17 -193 -59 0
-17 -189 -59 0
-17 -194 -59 0
-17 -190 -59 0
-17 -195 -59 0
-17 83 90 138 144 139 145 188 193 189 194 190 195 59 0
-24 -90 -59 0
-24 -144 -59 0
-24 -145 -59 0
-24 -193 -59 0
-24 -194 -59 0
-24 -195 -59 0
-24 90 144 145 193 194 195 59 0
-31 59 0
-11 -77 -59 0
-11 -84 -59 0
-11 -91 -59 0
-11 -133 -59 0
-11 -139 -59 0
-11 -145 -59 0
-11 -134 -59 0
-11 -140 -59 0
-11 -146 -59 0
-11 -184 -59 0
-11 -189 -59 0
-11 -194 -59 0
-11 -185 -59 0
-11 -190 -59 0
-11 -195 -59 0
-11 -186 -59 0
-11 -191 -59 0
-11 -196 -59 0
-11 77 84 91 133 139 145 134 140 146 184 189 194 185 190 195 186 191 196 59 0
-18 -84 -59 0
-18 -91 -59 0
-18 -139 -59 0
-18 -145 -59 0
-18 -140 -59 0
-18 -146 -59 0
-18 -189 -59 0
-18 -194 -59 0
-18 -190 -59 0
-18 -195 -59 0
-18 -191 -59 0
-18 -196 -59 0
-18 84 91 139 145 140 146 189 194 190 195 191 196 59 0
-25 -91 -59 0
-25 -145 -59 0
-25 -146 -59 0
-25 -194 -59 0
-25 -195 -59 0
-25 -196 -59 0
-25 91 145 146 194 195 196 59 0
-32 59 0
-12 -78 -59 0
-12 -85 -59 0
-12 -92 -59 0
-12 -134 -59 0
-12 -140 -59 0
-12 -146 -59 0
-12 -135 -59 0
-12 -141 -59 0
-12 -147 -59 0
-12 -185 -59 0
-12 -190 -59 0
-12 -195 -59 0
-12 -186 -59 0
-12 -191 -59 0
-12 -196 -59 0
-12 78 85 92 134 140 146 135 141 147 185 190 195 186 191 196 59 0
-19 -85 -59 0
-19 -92 -59 0
-19 -140 -59 0
-19 -146 -59 0
-19 -141 -59 0
-19 -147 -59 0
-19 -190 -59 0
-19 -195 -59 0
-19 -191 -59 0
-19 -196 -59 0
-19 85 92 140 146 141 147 190 195 191 196 59 0
-26 -92 -59 0
-26 -146 -59 0
-26 -147 -59 0
-26 -195 -59 0
-26 -196 -59 0
-26 92 146 147 195 196 59 0
-33 59 0
-13 -79 -59 0
-13 -86 -59 0
-13 -93 -59 0
-13 -135 -59 0
-13 -141 -59 0
-13 -147 -59 0
-13 -186 -59 0
-13 -191 -59 0
-13 -196 -59 0
-13 79 86 93 135 141 147 186 191 196 59 0
-20 -86 -59 0
-20 -93 -59 0
-20 -141 -59 0
-20 -147 -59 0
-20 -191 -59 0
-20 -196 -59 0
-20 86 93 141 147 191 196 59 0
-27 -93 -59 0
-27 -147 -59 0
-27 -196 -59 0
-27 93 147 196 59 0
-34 59 0
-67 -15 -118 0
-67 -22 -118 0
-67 -29 -118 0
-67 -131 -118 0
-67 -137 -118 0
-67 -143 -118 0
-67 -183 -118 0
-67 -188 -118 0
-67 -193 -118 0
-67 15 22 29 131 137 143 183 188 193 118 0
-74 -22 -118 0
-74 -29 -118 0
-74 -137 -118 0
-74 -143 -118 0
-74 -188 -118 0
-74 -193 -118 0
-74 22 29 137 143 188 193 118 0
-81 -29 -118 0
-81 -143 -118 0
-81 -193 -118 0
-81 29 143 193 118 0
-88 118 0
-68 -16 -118 0
-68 -23 -118 0
-68 -30 -118 0
-68 -131 -118 0
-68 -137 -118 0
-68 -143 -118 0
-68 -132 -118 0
-68 -138 -118 0
-68 -144 -118 0
-68 -183 -118 0
-68 -188 -118 0
-68 -193 -118 0
-68 -184 -118 0
-68 -189 -118 0
-68 -194 -118 0
-68 16 23 30 131 137 143 132 138 144 183 188 193 184 189 194 118 0
-75 -23 -118 0
-75 -30 -118 0
-75 -137 -118 0
-75 -143 -118 0
-75 -138 -118 0
-75 -144 -118 0
-75 -188 -118 0
-75 -193 -118 0
-75 -189 -118 0
-75 -194 -118 0
-75 23 30 137 143 138 144 188 193 189 194 118 0
-82 -30 -118 0
-82 -143 -118 0
-82 -144 -118 0
-82 -193 -118 0
-82 -194 -118 0
-82 30 143 144 193 194 118 0
-89 118 0
-69 -17 -118 0
-69 -24 -118 0
-69 -31 -118 0
-69 -132 -118 0
-69 -138 -118 0
-69 -144 -118 0
-69 -133 -118 0
-69 -139 -118 0
-69 -145 -118 0
-69 -183 -118 0
-69 -188 -118 0
-69 -193 -118 0
-69 -184 -118 0
-69 -189 -118 0
-69 -194 -118 0
-69 -185 -118 0
-69 -190 -118 0
-69 -195 -118 0
-69 17 24 31 132 138 144 133 139 145 183 188 193 184 189 194 185 190 195 118 0
-76 -24 -118 0
-76 -31 -118 0
-76 -138 -118 0
-76 -144 -118 0
-76 -139 -118 0
-76 -145 -118 0
-76 -188 -118 0
-76 -193 -118 0
-76 -189 -118 0
-76 -194 -118 0
-76 -190 -118 0
-76 -195 -118 0
-76 24 31 138 144 139 145 188 193 189 194 190 195 118 0
-83 -31 -118 0
-83 -144 -118 0
-83 -145 -118 0
-83 -193 -118 0
-83 -194 -118 0
-83 -195 -118 0
-83 31 144 145 193 194 195 118 0
-90 118 0
-70 -18 -118 0
-70 -25 -118 0
-70 -32 -118 0
-70 -133 -118 0
-70 -139 -118 0
-70 -145 -118 0
-70 -134 -118 0
-70 -140 -118 0
-70 -146 -118 0
-70 -184 -118 0
-70 -189 -118 0
-70 -194 -118 0
-70 -185 -118 0
-70 -190 -118 0
-70 -195 -118 0
-70 -186 -118 0
-70 -191 -118 0
-70 -196 -118 0
-70 18 25 32 133 139 145 134 140 146 184 189 194 185 190 195 186 191 196 118 0
-77 -25 -118 0
-77 -32 -118 0
-77 -139 -118 0
-77 -145 -118 0
-77 -140 -118 0
-77 -146 -118 0
-77 -189 -118 0
-77 -194 -118 0
-77 -190 -118 0
-77 -195 -118 0
-77 -191 -118 0
-77 -196 -118 0
-77 25 32 139 145 140 146 189 194 190 195 191 196 118 0
-84 -32 -118 0
-84 -145 -118 0
-84 -146 -118 0
-84 -194 -118 0
-84 -195 -118 0
-84 -196 -118 0
-84 32 145 146 194 195 196 118 0
-91 118 0
-71 -19 -118 0
-71 -26 -118 0
-71 -33 -118 0
-71 -134 -118 0
-71 -140 -118 0
-71 -146 -118 0
-71 -135 -118 0
-71 -141 -118 0
-71 -147 -118 0
-71 -185 -118 0
-71 -190 -118 0
-71 -195 -118 0
-71 -186 -118 0
-71 -191 -118 0
-71 -196 -118 0
-71 19 26 33 134 140 146 135 141 147 185 190 195 186 191 196 118 0
-78 -26 -118 0
-78 -33 -118 0
-78 -140 -118 0
-78 -146 -118 0
-78 -141 -118 0
-78 -147 -118 0
-78 -190 -118 0
-78 -195 -118 0
-78 -191 -118 0
-78 -196 -118 0
-78 26 33 140 146 141 147 190 195 191 196 118 0
-85 -33 -118 0
-85 -146 -118 0
-85 -147 -118 0
-85 -195 -118 0
-85 -196 -118 0
-85 33 146 147 195 196 118 0
-92 118 0
-72 -20 -118 0
-72 -27 -118 0
-72 -34 -118 0
-72 -135 -118 0
-72 -141 -118 0
-72 -147 -118 0
-72 -186 -118 0
-72 -191 -118 0
-72 -196 -118 0
-72 20 27 34 135 141 147 186 191 196 118 0
-79 -27 -118 0
-79 -34 -118 0
-79 -141 -118 0
-79 -147 -118 0
-79 -191 -118 0
-79 -196 -118 0
-79 27 34 141 147 191 196 118 0
-86 -34 -118 0
-86 -147 -118 0
-86 -196 -118 0
-86 34 147 196 118 0
-93 118 0
-125 -15 -172 0
-125 -22 -172 0
-125 -29 -172 0
-125 -16 -172 0
-125 -23 -172 0
-125 -30 -172 0
-125 -74 -172 0
-125 -81 -172 0
-125 -88 -172 0
-125 -75 -172 0
-125 -82 -172 0
-125 -89 -172 0
-125 -183 -172 0
-125 -188 -172 0
-125 -193 -172 0
-125 -184 -172 0
-125 -189 -172 0
-125 -194 -172 0
-125 15 22 29 16 23 30 74 81 88 75 82 89 183 188 193 184 189 194 172 0
-131 -22 -172 0
-131 -29 -172 0
-131 -23 -172 0
-131 -30 -172 0
-131 -81 -172 0
-131 -88 -172 0
-131 -82 -172 0
-131 -89 -172 0
-131 -188 -172 0
-131 -193 -172 0
-131 -189 -172 0
-131 -194 -172 0
-131 22 29 23 30 81 88 82 89 188 193 189 194 172 0
-137 -29 -172 0
-137 -30 -172 0
-137 -88 -172 0
-137 -89 -172 0
-137 -193 -172 0
-137 -194 -172 0
-137 29 30 88 89 193 194 172 0
-143 172 0
-126 -16 -172 0
-126 -23 -172 0
-126 -30 -172 0
-126 -17 -172 0
-126 -24 -172 0
-126 -31 -172 0
-126 -75 -172 0
-126 -82 -172 0
-126 -89 -172 0
-126 -76 -172 0
-126 -83 -172 0
-126 -90 -172 0
-126 -183 -172 0
-126 -188 -172 0
-126 -193 -172 0
-126 -184 -172 0
-126 -189 -172 0
-126 -194 -172 0
-126 -185 -172 0
-126 -190 -172 0
-126 -195 -172 0
-126 16 23 30 17 24 31 75 82 89 76 83 90 183 188 193 184 189 194 185 190 195 172 0
-132 -23 -172 0
-132 -30 -172 0
-132 -24 -172 0
-132 -31 -172 0
-132 -82 -172 0
-132 -89 -172 0
-132 -83 -172 0
-132 -90 -172 0
-132 -188 -172 0
-132 -193 -172 0
-132 -189 -172 0
-132 -194 -172 0
-132 -190 -172 0
-132 -195 -172 0
-132 23 30 24 31 82 89 83 90 188 193 189 194 190 195 172 0
-138 -30 -172 0
-138 -31 -172 0
-138 -89 -172 0
-138 -90 -172 0
-138 -193 -172 0
-138 -194 -172 0
-138 -195 -172 0
-138 30 31 89 90 193 194 195 172 0
-144 172 0
-127 -17 -172 0
-127 -24 -172 0
-127 -31 -172 0
-127 -18 -172 0
-127 -25 -172 0
-127 -32 -172 0
-127 -76 -172 0
-127 -83 -172 0
-127 -90 -172 0
-127 -77 -172 0
-127 -84 -172 0
-127 -91 -172 0
-127 -183 -172 0
-127 -188 -172 0
-127 -193 -172 0
-127 -184 -172 0
-127 -189 -172 0
-127 -194 -172 0
-127 -185 -172 0
-127 -190 -172 0
-127 -195 -172 0
-127 -186 -172 0
-127 -191 -172 0
-127 -196 -172 0
-127 17 24 31 18 25 32 76 83 90 77 84 91 183 188 193 184 189 194 185 190 195 186 191 196 172 0
-133 -24 -172 0
-133 -31 -172 0
-133 -25 -172 0
-133 -32 -172 0
-133 -83 -172 0
-133 -90 -172 0
-133 -84 -172 0
-133 -91 -172 0
-133 -188 -172 0
-133 -193 -172 0
-133 -189 -172 0
-133 -194 -172 0
-133 -190 -172 0
-133 -195 -172 0
-133 -191 -172 0
-133 -196 -172 0
-133 24 31 25 32 83 90 84 91 188 193 189 194 190 195 191 196 172 0
-139 -31 -172 0
-139 -32 -172 0
-139 -90 -172 0
-139 -91 -172 0
-139 -193 -172 0
-139 -194 -172 0
-139 -195 -172 0
-139 -196 -172 0
-139 31 32 90 91 193 194 195 196 172 0
-145 172 0
-128 -18 -172 0
-128 -25 -172 0
-128 -32 -172 0
-128 -19 -172 0
-128 -26 -172 0
-128 -33 -172 0
-128 -77 -172 0
-128 -84 -172 0
-128 -91 -172 0
-128 -78 -172 0
-128 -85 -172 0
-128 -92 -172 0
-128 -184 -172 0
-128 -189 -172 0
-128 -194 -172 0
-128 -185 -172 0
-128 -190 -172 0
-128 -195 -172 0
-128 -186 -172 0
-128 -191 -172 0
-128 -196 -172 0
-128 18 25 32 19 26 33 77 84 91 78 85 92 184 189 194 185 190 195 186 191 196 172 0
-134 -25 -172 0
-134 -32 -172 0
-134 -26 -172 0
-134 -33 -172 0
-134 -84 -172 0
-134 -91 -172 0
-134 -85 -172 0
-134 -92 -172 0
-134 -189 -172 0
-134 -194 -172 0
-134 -190 -172 0
-134 -195 -172 0
-134 -191 -172 0
-134 -196 -172 0
-134 25 32 26 33 84 91 85 92 189 194 190 195 191 196 172 0
-140 -32 -172 0
-140 -33 -172 0
-140 -91 -172 0
-140 -92 -172 0
-140 -194 -172 0
-140 -195 -172 0
-140 -196 -172 0
-140 32 33 91 92 194 195 196 172 0
-146 172 0
-129 -19 -172 0
-129 -26 -172 0
-129 -33 -172 0
-129 -20 -172 0
-129 -27 -172 0
-129 -34 -172 0
-129 -78 -172 0
-129 -85 -172 0
-129 -92 -172 0
-129 -79 -172 0
-129 -86 -172 0
-129 -93 -172 0
-129 -185 -172 0
-129 -190 -172 0
-129 -195 -172 0
-129 -186 -172 0
-129 -191 -172 0
-129 -196 -172 0
-129 19 26 33 20 27 34 78 85 92 79 86 93 185 190 195 186 191 196 172 0
-135 -26 -172 0
-135 -33 -172 0
-135 -27 -172 0
-135 -34 -172 0
-135 -85 -172 0
-135 -92 -172 0
-135 -86 -172 0
-135 -93 -172 0
-135 -190 -172 0
-135 -195 -172 0
-135 -191 -172 0
-135 -196 -172 0
-135 26 33 27 34 85 92 86 93 190 195 191 196 172 0
-141 -33 -172 0
-141 -34 -172 0
-141 -92 -172 0
-141 -93 -172 0
-141 -195 -172 0
-141 -196 -172 0
-141 33 34 92 93 195 196 172 0
-147 172 0
-178 -15 -221 0
-178 -22 -221 0
-178 -29 -221 0
-178 -16 -221 0
-178 -23 -221 0
-178 -30 -221 0
-178 -17 -221 0
-178 -24 -221 0
-178 -31 -221 0
-178 -74 -221 0
-178 -81 -221 0
-178 -88 -221 0
-178 -75 -221 0
-178 -82 -221 0
-178 -89 -221 0
-178 -76 -221 0
-178 -83 -221 0
-178 -90 -221 0
-178 -131 -221 0
-178 -137 -221 0
-178 -143 -221 0
-178 -132 -221 0
-178 -138 -221 0
-178 -144 -221 0
-178 -133 -221 0
-178 -139 -221 0
-178 -145 -221 0
-178 15 22 29 16 23 30 17 24 31 74 81 88 75 82 89 76 83 90 131 137 143 132 138 144 133 139 145 221 0
-183 -22 -221 0
-183 -29 -221 0
-183 -23 -221 0
-183 -30 -221 0
-183 -24 -221 0
-183 -31 -221 0
-183 -81 -221 0
-183 -88 -221 0
-183 -82 -221 0
-183 -89 -221 0
-183 -83 -221 0
-183 -90 -221 0
-183 -137 -221 0
-183 -143 -221 0
-183 -138 -221 0
-183 -144 -221 0
-183 -139 -221 0
-183 -145 -221 0
-183 22 29 23 30 24 31 81 88 82 89 83 90 137 143 138 144 139 145 221 0
-188 -29 -221 0
-188 -30 -221 0
-188 -31 -221 0
-188 -88 -221 0
-188 -89 -221 0
-188 -90 -221 0
-188 -143 -221 0
-188 -144 -221 0
-188 -145 -221 0
-188 29 30 31 88 89 90 143 144 145 221 0
-193 221 0
-179 -16 -221 0
-179 -23 -221 0
-179 -30 -221 0
-179 -17 -221 0
-179 -24 -221 0
-179 -31 -221 0
-179 -18 -221 0
-179 -25 -221 0
-179 -32 -221 0
-179 -75 -221 0
-179 -82 -221 0
-179 -89 -221 0
-179 -76 -221 0
-179 -83 -221 0
-179 -90 -221 0
-179 -77 -221 0
-179 -84 -221 0
-179 -91 -221 0
-179 -131 -221 0
-179 -137 -221 0
-179 -143 -221 0
-179 -132 -221 0
-179 -138 -221 0
-179 -144 -221 0
-179 -133 -221 0
-179 -139 -221 0
-179 -145 -221 0
-179 -134 -221 0
-179 -140 -221 0
-179 -146 -221 0
-179 16 23 30 17 24 31 18 25 32 75 82 89 76 83 90 77 84 91 131 137 143 132 138 144 133 139 145 134 140 146 221 0
-184 -23 -221 0
-184 -30 -221 0
-184 -24 -221 0
-184 -31 -221 0
-184 -25 -221 0
-184 -32 -221 0
-184 -82 -221 0
-184 -89 -221 0
-184 -83 -221 0
-184 -90 -221 0
-184 -84 -221 0
-184 -91 -221 0
-184 -137 -221 0
-184 -143 -221 0
-184 -138 -221 0
-184 -144 -221 0
-184 -139 -221 0
-184 -145 -221 0
-184 -140 -221 0
-184 -146 -221 0
-184 23 30 24 31 25 32 82 89 83 90 84 91 137 143 138 144 139 145 140 146 221 0
-189 -30 -221 0
-189 -31 -221 0
-189 -32 -221 0
-189 -89 -221 0
-189 -90 -221 0
-189 -91 -221 0
-189 -143 -221 0
-189 -144 -221 0
-189 -145 -221 0
-189 -146 -221 0
-189 30 31 32 89 90 91 143 144 145 146 221 0
-194 221 0
-180 -17 -221 0
-180 -24 -221 0
-180 -31 -221 0
-180 -18 -221 0
-180 -25 -221 0
-180 -32 -221 0
-180 -19 -221 0
-180 -26 -221 0
-180 -33 -221 0
-180 -76 -221 0
-180 -83 -221 0
-180 -90 -221 0
-180 -77 -221 0
-180 -84 -221 0
-180 -91 -221 0
-180 -78 -221 0
-180 -85 -221 0
-180 -92 -221 0
-180 -132 -221 0
-180 -138 -221 0
-180 -144 -221 0
-180 -133 -221 0
-180 -139 -221 0
-180 -145 -221 0
-180 -134 -221 0
-180 -140 -221 0
-180 -146 -221 0
-180 -135 -221 0
-180 -141 -221 0
-180 -147 -221 0
-180 17 24 31 18 25 32 19 26 33 76 83 90 77 84 91 78 85 92 132 138 144 133 139 145 134 140 146 135 141 147 221 0
-185 -24 -221 0
-185 -31 -221 0
-185 -25 -221 0
-185 -32 -221 0
-185 -26 -221 0
-185 -33 -221 0
-185 -83 -221 0
-185 -90 -221 0
-185 -84 -221 0
-185 -91 -221 0
-185 -85 -221 0
-185 -92 -221 0
-185 -138 -221 0
-185 -144 -221 0
-185 -139 -221 0
-185 -145 -221 0
-185 -140 -221 0
-185 -146 -221 0
-185 -141 -221 0
-185 -147 -221 0
-185 24 31 25 32 26 33 83 90 84 91 85 92 138 144 139 145 140 146 141 147 221 0
-190 -31 -221 0
-190 -32 -221 0
-190 -33 -221 0
-190 -90 -221 0
-190 -91 -221 0
-190 -92 -221 0
-190 -144 -221 0
-190 -145 -221 0
-190 -146 -221 0
-190 -147 -221 0
-190 31 32 33 90 91 92 144 145 146 147 221 0
-195 221 0
-181 -18 -221 0
-181 -25 -221 0
-181 -32 -221 0
-181 -19 -221 0
-181 -26 -221 0
-181 -33 -221 0
-181 -20 -221 0
-181 -27 -221 0
-181 -34 -221 0
-181 -77 -221 0
-181 -84 -221 0
-181 -91 -221 0
-181 -78 -221 0
-181 -85 -221 0
-181 -92 -221 0
-181 -79 -221 0
-181 -86 -221 0
-181 -93 -221 0
-181 -133 -221 0
-181 -139 -221 0
-181 -145 -221 0
-181 -134 -221 0
-181 -140 -221 0
-181 -146 -221 0
-181 -135 -221 0
-181 -141 -221 0
-181 -147 -221 0
-181 18 25 32 19 26 33 20 27 34 77 84 91 78 85 92 79 86 93 133 139 145 134 140 146 135 141 147 221 0
-186 -25 -221 0
-186 -32 -221 0
-186 -26 -221 0
-186 -33 -221 0
-186 -27 -221 0
-186 -34 -221 0
-186 -84 -221 0
-186 -91 -221 0
-186 -85 -221 0
-186 -92 -221 0
-186 -86 -221 0
-186 -93 -221 0
-186 -139 -221 0
-186 -145 -221 0
-186 -140 -221 0
-186 -146 -221 0
-186 -141 -221 0
-186 -147 -221 0
-186 25 32 26 33 27 34 84 91 85 92 86 93 139 145 140 146 141 147 221 0
-191 -32 -221 0
-191 -33 -221 0
-191 -34 -221 0
-191 -91 -221 0
-191 -92 -221 0
-191 -93 -221 0
-191 -145 -221 0
-191 -146 -221 0
-191 -147 -221 0
-191 32 33 34 91 92 93 145 146 147 221 0
-196 221 0
-229 -295 -280 0
-229 -302 -280 0
-229 -309 -280 0
-229 -352 -280 0
-229 -358 -280 0
-229 -364 -280 0
-229 -404 -280 0
-229 -409 -280 0
-229 -414 -280 0
-229 295 302 309 352 358 364 404 409 414 280 0
-236 -302 -280 0
-236 -309 -280 0
-236 -358 -280 0
-236 -364 -280 0
-236 -409 -280 0
-236 -414 -280 0
-236 302 309 358 364 409 414 280 0
-243 -309 -280 0
-243 -364 -280 0
-243 -414 -280 0
-243 309 364 414 280 0
-250 280 0
-230 -296 -280 0
-230 -303 -280 0
-230 -310 -280 0
-230 -352 -280 0
-230 -358 -280 0
-230 -364 -280 0
-230 -353 -280 0
-230 -359 -280 0
-230 -365 -280 0
-230 -404 -280 0
-230 -409 -280 0
-230 -414 -280 0
-230 -405 -280 0
-230 -410 -280 0
-230 -415 -280 0
-230 296 303 310 352 358 364 353 359 365 404 409 414 405 410 415 280 0
-237 -303 -280 0
-237 -310 -280 0
-237 -358 -280 0
-237 -364 -280 0
-237 -359 -280 0
-237 -365 -280 0
-237 -409 -280 0
-237 -414 -280 0
-237 -410 -280 0
-237 -415 -280 0
-237 303 310 358 364 359 365 409 414 410 415 280 0
-244 -310 -280 0
-244 -364 -280 0
-244 -365 -280 0
-244 -414 -280 0
-244 -415 -280 0
-244 310 364 365 414 415 280 0
-251 280 0
-231 -297 -280 0
-231 -304 -280 0
-231 -311 -280 0
-231 -353 -280 0
-231 -359 -280 0
-231 -365 -280 0
-231 -354 -280 0
-231 -360 -280 0
-231 -366 -280 0
-231 -404 -280 0
-231 -409 -280 0
-231 -414 -280 0
-231 -405 -280 0
-231 -410 -280 0
-231 -415 -280 0
-231 -406 -280 0
-231 -411 -280 0
-231 -416 -280 0
-231 297 304 311 353 359 365 354 360 366 404 409 414 405 410 415 406 411 416 280 0
-238 -304 -280 0
-238 -311 -280 0
-238 -359 -280 0
-238 -365 -280 0
-238 -360 -280 0
-238 -366 -280 0
-238 -409 -280 0
-238 -414 -280 0
-238 -410 -280 0
-238 -415 -280 0
-238 -411 -280 0
-238 -416 -280 0
-238 304 311 359 365 360 366 409 414 410 415 411 416 280 0
-245 -311 -280 0
-245 -365 -280 0
-245 -366 -280 0
-245 -414 -280 0
-245 -415 -280 0
-245 -416 -280 0
-245 311 365 366 414 415 416 280 0
-252 280 0
-232 -298 -280 0
-232 -305 -280 0
-232 -312 -280 0
-232 -354 -280 0
-232 -360 -280 0
-232 -366 -280 0
-232 -355 -280 0
-232 -361 -280 0
-232 -367 -280 0
-232 -405 -280 0
-232 -410 -280 0
-232 -415 -280 0
-232 -406 -280 0
-232 -411 -280 0
-232 -416 -280 0
-232 -407 -280 0
-232 -412 -280 0
-232 -417 -280 0
-232 298 305 312 354 360 366 355 361 367 405 410 415 406 411 416 407 412 417 280 0
-239 -305 -280 0
-239 -312 -280 0
-239 -360 -280 0
-239 -366 -280 0
-239 -361 -280 0
-239 -367 -280 0
-239 -410 -280 0
-239 -415 -280 0
-239 -411 -280 0
-239 -416 -280 0
-239 -412 -280 0
-239 -417 -280 0
-239 305 312 360 366 361 367 410 415 411 416 412 417 280 0
-246 -312 -280 0
-246 -366 -280 0
-246 -367 -280 0
-246 -415 -280 0
-246 -416 -280 0
-246 -417 -280 0
-246 312 366 367 415 416 417 280 0
-253 280 0
-233 -299 -280 0
-233 -306 -280 0
-233 -313 -280 0
-233 -355 -280 0
-233 -361 -280 0
-233 -367 -280 0
-233 -356 -280 0
-233 -362 -280 0
-233 -368 -280 0
-233 -406 -280 0
-233 -411 -280 0
-233 -416 -280 0
-233 -407 -280 0
-233 -412 -280 0
-233 -417 -280 0
-233 299 306 313 355 361 367 356 362 368 406 411 416 407 412 417 280 0
-240 -306 -280 0
-240 -313 -280 0
-240 -361 -280 0
-240 -367 -280 0
-240 -362 -280 0
-240 -368 -280 0
-240 -411 -280 0
-240 -416 -280 0
-240 -412 -280 0
-240 -417 -280 0
-240 306 313 361 367 362 368 411 416 412 417 280 0
-247 -313 -280 0
-247 -367 -280 0
-247 -368 -280 0
-247 -416 -280 0
-247 -417 -280 0
-247 313 367 368 416 417 280 0
-254 280 0
-234 -300 -280 0
-234 -307 -280 0
-234 -314 -280 0
-234 -356 -280 0
-234 -362 -280 0
-234 -368 -280 0
-234 -407 -280 0
-234 -412 -280 0
-234 -417 -280 0
-234 300 307 314 356 362 368 407 412 417 280 0
-241 -307 -280 0
-241 -314 -280 0
-241 -362 -280 0
-241 -368 -280 0
-241 -412 -280 0
-241 -417 -280 0
-241 307 314 362 368 412 417 280 0
-248 -314 -280 0
-248 -368 -280 0
-248 -417 -280 0
-248 314 368 417 280 0
-255 280 0
-288 -236 -339 0
-288 -243 -339 0
-288 -250 -339 0
-288 -352 -339 0
-288 -358 -339 0
-288 -364 -339 0
-288 -404 -339 0
-288 -409 -339 0
-288 -414 -339 0
-288 236 243 250 352 358 364 404 409 414 339 0
-295 -243 -339 0
-295 -250 -339 0
-295 -358 -339 0
-295 -364 -339 0
-295 -409 -339 0
-295 -414 -339 0
-295 243 250 358 364 409 414 339 0
-302 -250 -339 0
-302 -364 -339 0
-302 -414 -339 0
-302 250 364 414 339 0
-309 339 0
-289 -237 -339 0
-289 -244 -339 0
-289 -251 -339 0
-289 -352 -339 0
-289 -358 -339 0
-289 -364 -339 0
-289 -353 -339 0
-289 -359 -339 0
-289 -365 -339 0
-289 -404 -339 0
-289 -409 -339 0
-289 -414 -339 0
-289 -405 -339 0
-289 -410 -339 0
-289 -415 -339 0
-289 237 244 251 352 358 364 353 359 365 404 409 414 405 410 415 339 0
-296 -244 -339 0
-296 -251 -339 0
-296 -358 -339 0
-296 -364 -339 0
-296 -359 -339 0
-296 -365 -339 0
-296 -409 -339 0
-296 -414 -339 0
-296 -410 -339 0
-296 -415 -339 0
-296 244 251 358 364 359 365 409 414 410 415 339 0
-303 -251 -339 0
-303 -364 -339 0
-303 -365 -339 0
-303 -414 -339 0
-303 -415 -339 0
-303 251 364 365 414 415 339 0
-310 339 0
-290 -238 -339 0
-290 -245 -339 0
-290 -252 -339 0
-290 -353 -339 0
-290 -359 -339 0
-290 -365 -339 0
-290 -354 -339 0
-290 -360 -339 0
-290 -366 -339 0
-290 -404 -339 0
-290 -409 -339 0
-290 -414 -339 0
-290 -405 -339 0
-290 -410 -339 0
-290 -415 -339 0
-290 -406 -339 0
-290 -411 -339 0
-290 -416 -339 0
-290 238 245 252 353 359 365 354 360 366 404 409 414 405 410 415 406 411 416 339 0
-297 -245 -339 0
-297 -252 -339 0
-297 -359 -339 0
-297 -365 -339 0
-297 -360 -339 0
-297 -366 -339 0
-297 -409 -339 0
-297 -414 -339 0
-297 -410 -339 0
-297 -415 -339 0
-297 -411 -339 0
-297 -416 -339 0
-297 245 252 359 365 360 366 409 414 410 415 411 416 339 0
-304 -252 -339 0
-304 -365 -339 0
-304 -366 -339 0
-304 -414 -339 0
-304 -415 -339 0
-304 -416 -339 0
-304 252 365 366 414 415 416 339 0
-311 339 0
-291 -239 -339 0
-291 -246 -339 0
-291 -253 -339 0
-291 -354 -339 0
-291 -360 -339 0
-291 -366 -339 0
-291 -355 -339 0
-291 -361 -339 0
-291 -367 -339 0
-291 -405 -339 0
-291 -410 -339 0
-291 -415 -339 0
-291 -406 -339 0
-291 -411 -339 0
-291 -416 -339 0
-291 -407 -339 0
-291 -412 -339 0
-291 -417 -339 0
-291 239 246 253 354 360 366 355 361 367 405 410 415 406 411 416 407 412 417 339 0
-298 -246 -339 0
-298 -253 -339 0
-298 -360 -339 0
-298 -366 -339 0
-298 -361 -339 0
-298 -367 -339 0
-298 -410 -339 0
-298 -415 -339 0
-298 -411 -339 0
-298 -416 -339 0
-298 -412 -339 0
-298 -417 -339 0
-298 246 253 360 366 361 367 410 415 411 416 412 417 339 0
-305 -253 -339 0
-305 -366 -339 0
-305 -367 -339 0
-305 -415 -339 0
-305 -416 -339 0
-305 -417 -339 0
-305 253 366 367 415 416 417 339 0
-312 339 0
-292 -240 -339 0
-292 -247 -339 0
-292 -254 -339 0
-292 -355 -339 0
-292 -361 -339 0
-292 -367 -339 0
-292 -356 -339 0
-292 -362 -339 0
-292 -368 -339 0
-292 -406 -339 0
-292 -411 -339 0
-292 -416 -339 0
-292 -407 -339 0
-292 -412 -339 0
-292 -417 -339 0
-292 240 247 254 355 361 367 356 362 368 406 411 416 407 412 417 339 0
-299 -247 -339 0
-299 -254 -339 0
-299 -361 -339 0
-299 -367 -339 0
-299 -362 -339 0
-299 -368 -339 0
-299 -411 -339 0
-299 -416 -339 0
-299 -412 -339 0
-299 -417 -339 0
-299 247 254 361 367 362 368 411 416 412 417 339 0
-306 -254 -339 0
-306 -367 -339 0
-306 -368 -339 0
-306 -416 -339 0
-306 -417 -339 0
-306 254 367 368 416 417 339 0
-313 339 0
-293 -241 -339 0
-293 -248 -339 0
-293 -255 -339 0
-293 -356 -339 0
-293 -362 -339 0
-293 -368 -339 0
-293 -407 -339 0
-293 -412 -339 0
-293 -417 -339 0
-293 241 248 255 356 362 368 407 412 417 339 0
-300 -248 -339 0
-300 -255 -339 0
-300 -362 -339 0
-300 -368 -339 0
-300 -412 -339 0
-300 -417 -339 0
-300 248 255 362 368 412 417 339 0
-307 -255 -339 0
-307 -368 -339 0
-307 -417 -339 0
-307 255 368 417 339 0
-314 339 0
-346 -236 -393 0
-346 -243 -393 0
-346 -250 -393 0
-346 -237 -393 0
-346 -244 -393 0
-346 -251 -393 0
-346 -295 -393 0
-346 -302 -393 0
-346 -309 -393 0
-346 -296 -393 0
-346 -303 -393 0
-346 -310 -393 0
-346 -404 -393 0
-346 -409 -393 0
-346 -414 -393 0
-346 -405 -393 0
-346 -410 -393 0
-346 -415 -393 0
-346 236 243 250 237 244 251 295 302 309 296 303 310 404 409 414 405 410 415 393 0
-352 -243 -393 0
-352 -250 -393 0
-352 -244 -393 0
-352 -251 -393 0
-352 -302 -393 0
-352 -309 -393 0
-352 -303 -393 0
-352 -310 -393 0
-352 -409 -393 0
-352 -414 -393 0
-352 -410 -393 0
-352 -415 -393 0
-352 243 250 244 251 302 309 303 310 409 414 410 415 393 0
-358 -250 -393 0
-358 -251 -393 0
-358 -309 -393 0
-358 -310 -393 0
-358 -414 -393 0
-358 -415 -393 0
-358 250 251 309 310 414 415 393 0
-364 393 0
-347 -237 -393 0
-347 -244 -393 0
-347 -251 -393 0
-347 -238 -393 0
-347 -245 -393 0
-347 -252 -393 0
-347 -296 -393 0
-347 -303 -393 0
-347 -310 -393 0
-347 -297 -393 0
-347 -304 -393 0
-347 -311 -393 0
-347 -404 -393 0
-347 -409 -393 0
-347 -414 -393 0
-347 -405 -393 0
-347 -410 -393 0
-347 -415 -393 0
-347 -406 -393 0
-347 -411 -393 0
-347 -416 -393 0
-347 237 244 251 238 245 252 296 303 310 297 304 311 404 409 414 405 410 415 406 411 416 393 0
-353 -244 -393 0
-353 -251 -393 0
-353 -245 -393 0
-353 -252 -393 0
-353 -303 -393 0
-353 -310 -393 0
-353 -304 -393 0
-353 -311 -393 0
-353 -409 -393 0
-353 -414 -393 0
-353 -410 -393 0
-353 -415 -393 0
-353 -411 -393 0
-353 -416 -393 0
-353 244 251 245 252 303 310 304 311 409 414 410 415 411 416 393 0
-359 -251 -393 0
-359 -252 -393 0
-359 -310 -393 0
-359 -311 -393 0
-359 -414 -393 0
-359 -415 -393 0
-359 -416 -393 0
-359 251 252 310 311 414 415 416 393 0
-365 393 0
-348 -238 -393 0
-348 -245 -393 0
-348 -252 -393 0
-348 -239 -393 0
-348 -246 -393 0
-348 -253 -393 0
-348 -297 -393 0
-348 -304 -393 0
-348 -311 -393 0
-348 -298 -393 0
-348 -305 -393 0
-348 -312 -393 0
-348 -404 -393 0
-348 -409 -393 0
-348 -414 -393 0
-348 -405 -393 0
-348 -410 -393 0
-348 -415 -393 0
-348 -406 -393 0
-348 -411 -393 0
-348 -416 -393 0
-348 -407 -393 0
-348 -412 -393 0
-348 -417 -393 0
-348 238 245 252 239 246 253 297 304 311 298 305 312 404 409 414 405 410 415 406 411 416 407 412 417 393 0
-354 -245 -393 0
-354 -252 -393 0
-354 -246 -393 0
-354 -253 -393 0
-354 -304 -393 0
-354 -311 -393 0
-354 -305 -393 0
-354 -312 -393 0
-354 -409 -393 0
-354 -414 -393 0
-354 -410 -393 0
-354 -415 -393 0
-354 -411 -393 0
-354 -416 -393 0
-354 -412 -393 0
-354 -417 -393 0
-354 245 252 246 253 304 311 305 312 409 414 410 415 411 416 412 417 393 0
-360 -252 -393 0
-360 -253 -393 0
-360 -311 -393 0
-360 -312 -393 0
-360 -414 -393 0
-360 -415 -393 0
-360 -416 -393 0
-360 -417 -393 0
-360 252 253 311 312 414 415 416 417 393 0
-366 393 0
-349 -239 -393 0
-349 -246 -393 0
-349 -253 -393 0
-349 -240 -393 0
-349 -247 -393 0
-349 -254 -393 0
-349 -298 -393 0
-349 -305 -393 0
-349 -312 -393 0
-349 -299 -393 0
-349 -306 -393 0
-349 -313 -393 0
-349 -405 -393 0
-349 -410 -393 0
-349 -415 -393 0
-349 -406 -393 0
-349 -411 -393 0
-349 -416 -393 0
-349 -407 -393 0
-349 -412 -393 0
-349 -417 -393 0
-349 239 246 253 240 247 254 298 305 312 299 306 313 405 410 415 406 411 416 407 412 417 393 0
-355 -246 -393 0
-355 -253 -393 0
-355 -247 -393 0
-355 -254 -393 0
-355 -305 -393 0
-355 -312 -393 0
-355 -306 -393 0
-355 -313 -393 0
-355 -410 -393 0
-355 -415 -393 0
-355 -411 -393 0
-355 -416 -393 0
-355 -412 -393 0
-355 -417 -393 0
-355 246 253 247 254 305 312 306 313 410 415 411 416 412 417 393 0
-361 -253 -393 0
-361 -254 -393 0
-361 -312 -393 0
-361 -313 -393 0
-361 -415 -393 0
-361 -416 -393 0
-361 -417 -393 0
-361 253 254 312 313 415 416 417 393 0
-367 393 0
-350 -240 -393 0
-350 -247 -393 0
-350 -254 -393 0
-350 -241 -393 0
-350 -248 -393 0
-350 -255 -393 0
-350 -299 -393 0
-350 -306 -393 0
-350 -313 -393 0
-350 -300 -393 0
-350 -307 -393 0
-350 -314 -393 0
-350 -406 -393 0
-350 -411 -393 0
-350 -416 -393 0
-350 -407 -393 0
-350 -412 -393 0
-350 -417 -393 0
-350 240 247 254 241 248 255 299 306 313 300 307 314 406 411 416 407 412 417 393 0
-356 -247 -393 0
-356 -254 -393 0
-356 -248 -393 0
-356 -255 -393 0
-356 -306 -393 0
-356 -313 -393 0
-356 -307 -393 0
-356 -314 -393 0
-356 -411 -393 0
-356 -416 -393 0
-356 -412 -393 0
-356 -417 -393 0
-356 247 254 248 255 306 313 307 314 411 416 412 417 393 0
-362 -254 -393 0
-362 -255 -393 0
-362 -313 -393 0
-362 -314 -393 0
-362 -416 -393 0
-362 -417 -393 0
-362 254 255 313 314 416 417 393 0
-368 393 0
-399 -236 -442 0
-399 -243 -442 0
-399 -250 -442 0
-399 -237 -442 0
-399 -244 -442 0
-399 -251 -442 0
-399 -238 -442 0
-399 -245 -442 0
-399 -252 -442 0
-399 -295 -442 0
-399 -302 -442 0
-399 -309 -442 0
-399 -296 -442 0
-399 -303 -442 0
-399 -310 -442 0
-399 -297 -442 0
-399 -304 -442 0
-399 -311 -442 0
-399 -352 -442 0
-399 -358 -442 0
-399 -364 -442 0
-399 -353 -442 0
-399 -359 -442 0
-399 -365 -442 0
-399 -354 -442 0
-399 -360 -442 0
-399 -366 -442 0
-399 236 243 250 237 244 251 238 245 252 295 302 309 296 303 310 297 304 311 352 358 364 353 359 365 354 360 366 442 0
-404 -243 -442 0
-404 -250 -442 0
-404 -244 -442 0
-404 -251 -442 0
-404 -245 -442 0
-404 -252 -442 0
-404 -302 -442 0
-404 -309 -442 0
-404 -303 -442 0
-404 -310 -442 0
-404 -304 -442 0
-404 -311 -442 0
-404 -358 -442 0
-404 -364 -442 0
-404 -359 -442 0
-404 -365 -442 0
-404 -360 -442 0
-404 -366 -442 0
-404 243 250 244 251 245 252 302 309 303 310 304 311 358 364 359 365 360 366 442 0
-409 -250 -442 0
-409 -251 -442 0
-409 -252 -442 0
-409 -309 -442 0
-409 -310 -442 0
-409 -311 -442 0
-409 -364 -442 0
-409 -365 -442 0
-409 -366 -442 0
-409 250 251 252 309 310 311 364 365 366 442 0
-414 442 0
-400 -237 -442 0
-400 -244 -442 0
-400 -251 -442 0
-400 -238 -442 0
-400 -245 -442 0
-400 -252 -442 0
-400 -239 -442 0
-400 -246 -442 0
-400 -253 -442 0
-400 -296 -442 0
-400 -303 -442 0
-400 -310 -442 0
-400 -297 -442 0
-400 -304 -442 0
-400 -311 -442 0
-400 -298 -442 0
-400 -305 -442 0
-400 -312 -442 0
-400 -352 -442 0
-400 -358 -442 0
-400 -364 -442 0
-400 -353 -442 0
-400 -359 -442 0
-400 -365 -442 0
-400 -354 -442 0
-400 -360 -442 0
-400 -366 -442 0
-400 -355 -442 0
-400 -361 -442 0
-400 -367 -442 0
-400 237 244 251 238 245 252 239 246 253 296 303 310 297 304 311 298 305 312 352 358 364 353 359 365 354 360 366 355 361 367 442 0
-405 -244 -442 0
-405 -251 -442 0
-405 -245 -442 0
-405 -252 -442 0
-405 -246 -442 0
-405 -253 -442 0
-405 -303 -442 0
-405 -310 -442 0
-405 -304 -442 0
-405 -311 -442 0
-405 -305 -442 0
-405 -312 -442 0
-405 -358 -442 0
-405 -364 -442 0
-405 -359 -442 0
-405 -365 -442 0
-405 -360 -442 0
-405 -366 -442 0
-405 -361 -442 0
-405 -367 -442 0
-405 244 251 245 252 246 253 303 310 304 311 305 312 358 364 359 365 360 366 361 367 442 0
-410 -251 -442 0
-410 -252 -442 0
-410 -253 -442 0
-410 -310 -442 0
-410 -311 -442 0
-410 -312 -442 0
-410 -364 -442 0
-410 -365 -442 0
-410 -366 -442 0
-410 -367 -442 0
-410 251 252 253 310 311 312 364 365 366 367 442 0
-415 442 0
-401 -238 -442 0
-401 -245 -442 0
-401 -252 -442 0
-401 -239 -442 0
-401 -246 -442 0
-401 -253 -442 0
-401 -240 -442 0
-401 -247 -442 0
-401 -254 -442 0
-401 -297 -442 0
-401 -304 -442 0
-401 -311 -442 0
-401 -298 -442 0
-401 -305 -442 0
-401 -312 -442 0
-401 -299 -442 0
-401 -306 -442 0
-401 -313 -442 0
-401 -353 -442 0
-401 -359 -442 0
-401 -365 -442 0
-401 -354 -442 0
-401 -360 -442 0
-401 -366 -442 0
-401 -355 -442 0
-401 -361 -442 0
-401 -367 -442 0
-401 -356 -442 0
-401 -362 -442 0
-401 -368 -442 0
-401 238 245 252 239 246 253 240 247 254 297 304 311 298 305 312 299 306 313 353 359 365 354 360 366 355 361 367 356 362 368 442 0
-406 -245 -442 0
-406 -252 -442 0
-406 -246 -442 0
-406 -253 -442 0
-406 -247 -442 0
-406 -254 -442 0
-406 -304 -442 0
-406 -311 -442 0
-406 -305 -442 0
-406 -312 -442 0
-406 -306 -442 0
-406 -313 -442 0
-406 -359 -442 0
-406 -365 -442 0
-406 -360 -442 0
-406 -366 -442 0
-406 -361 -442 0
-406 -367 -442 0
-406 -362 -442 0
-406 -368 -442 0
-406 245 252 246 253 247 254 304 311 305 312 306 313 359 365 360 366 361 367 362 368 442 0
-411 -252 -442 0
-411 -253 -442 0
-411 -254 -442 0
-411 -311 -442 0
-411 -312 -442 0
-411 -313 -442 0
-411 -365 -442 0
-411 -366 -442 0
-411 -367 -442 0
-411 -368 -442 0
-411 252 253 254 311 312 313 365 366 367 368 442 0
-416 442 0
-402 -239 -442 0
-402 -246 -442 0
-402 -253 -442 0
-402 -240 -442 0
-402 -247 -442 0
-402 -254 -442 0
-402 -241 -442 0
-402 -248 -442 0
-402 -255 -442 0
-402 -298 -442 0
-402 -305 -442 0
-402 -312 -442 0
-402 -299 -442 0
-402 -306 -442 0
-402 -313 -442 0
-402 -300 -442 0
-402 -307 -442 0
-402 -314 -442 0
-402 -354 -442 0
-402 -360 -442 0
-402 -366 -442 0
-402 -355 -442 0
-402 -361 -442 0
-402 -367 -442 0
-402 -356 -442 0
-402 -362 -442 0
-402 -368 -442 0
-402 239 246 253 240 247 254 241 248 255 298 305 312 299 306 313 300 307 314 354 360 366 355 361 367 356 362 368 442 0
-407 -246 -442 0
-407 -253 -442 0
-407 -247 -442 0
-407 -254 -442 0
-407 -248 -442 0
-407 -255 -442 0
-407 -305 -442 0
-407 -312 -442 0
-407 -306 -442 0
-407 -313 -442 0
-407 -307 -442 0
-407 -314 -442 0
-407 -360 -442 0
-407 -366 -442 0
-407 -361 -442 0
-407 -367 -442 0
-407 -362 -442 0
-407 -368 -442 0
-407 246 253 247 254 248 255 305 312 306 313 307 314 360 366 361 367 362 368 442 0
-412 -253 -442 0
-412 -254 -442 0
-412 -255 -442 0
-412 -312 -442 0
-412 -313 -442 0
-412 -314 -442 0
-412 -366 -442 0
-412 -367 -442 0
-412 -368 -442 0
-412 253 254 255 312 313 314 366 367 368 442 0
-417 442 0
-450 -516 -501 0
-450 -523 -501 0
-450 -530 -501 0
-450 -573 -501 0
-450 -579 -501 0
-450 -585 -501 0
-450 -625 -501 0
-450 -630 -501 0
-450 -635 -501 0
-450 516 523 530 573 579 585 625 630 635 501 0
-457 -523 -501 0
-457 -530 -501 0
-457 -579 -501 0
-457 -585 -501 0
-457 -630 -501 0
-457 -635 -501 0
-457 523 530 579 585 630 635 501 0
-464 -530 -501 0
-464 -585 -501 0
-464 -635 -501 0
-464 530 585 635 501 0
-471 501 0
-451 -517 -501 0
-451 -524 -501 0
-451 -531 -501 0
-451 -573 -501 0
-451 -579 -501 0
-451 -585 -501 0
-451 -574 -501 0
-451 -580 -501 0
-451 -586 -501 0
-451 -625 -501 0
-451 -630 -501 0
-451 -635 -501 0
-451 -626 -501 0
-451 -631 -501 0
-451 -636 -501 0
-451 517 524 531 573 579 585 574 580 586 625 630 635 626 631 636 501 0
-458 -524 -501 0
-458 -531 -501 0
-458 -579 -501 0
-458 -585 -501 0
-458 -580 -501 0
-458 -586 -501 0
-458 -630 -501 0
-458 -635 -501 0
-458 -631 -501 0
-458 -636 -501 0
-458 524 531 579 585 580 586 630 635 631 636 501 0
-465 -531 -501 0
-465 -585 -501 0
-465 -586 -501 0
-465 -635 -501 0
-465 -636 -501 0
-465 531 585 586 635 636 501 0
-472 501 0
-452 -518 -501 0
-452 -525 -501 0
-452 -532 -501 0
-452 -574 -501 0
-452 -580 -501 0
-452 -586 -501 0
-452 -575 -501 0
-452 -581 -501 0
-452 -587 -501 0
-452 -625 -501 0
-452 -630 -501 0
-452 -635 -501 0
-452 -626 -501 0
-452 -631 -501 0
-452 -636 -501 0
-452 -627 -501 0
-452 -632 -501 0
-452 -637 -501 0
-452 518 525 532 574 580 586 575 581 587 625 630 635 626 631 636 627 632 637 501 0
-459 -525 -501 0
-459 -532 -501 0
-459 -580 -501 0
-459 -586 -501 0
-459 -581 -501 0
-459 -587 -501 0
-459 -630 -501 0
-459 -635 -501 0
-459 -631 -501 0
-459 -636 -501 0
-459 -632 -501 0
-459 -637 -501 0
-459 525 532 580 586 581 587 630 635 631 636 632 637 501 0
-466 -532 -501 0
-466 -586 -501 0
-466 -587 -501 0
-466 -635 -501 0
-466 -636 -501 0
-466 -637 -501 0
-466 532 586 587 635 636 637 501 0
-473 501 0
-453 -519 -501 0
-453 -526 -501 0
-453 -533 -501 0
-453 -575 -501 0
-453 -581 -501 0
-453 -587 -501 0
-453 -576 -501 0
-453 -582 -501 0
-453 -588 -501 0
-453 -626 -501 0
-453 -631 -501 0
-453 -636 -501 0
-453 -627 -501 0
-453 -632 -501 0
-453 -637 -501 0
-453 -628 -501 0
-453 -633 -501 0
-453 -638 -501 0
-453 519 526 533 575 581 587 576 582 588 626 631 636 627 632 637 628 633 638 501 0
-460 -526 -501 0
-460 -533 -501 0
-460 -581 -501 0
-460 -587 -501 0
-460 -582 -501 0
-460 -588 -501 0
-460 -631 -501 0
-460 -636 -501 0
-460 -632 -501 0
-460 -637 -501 0
-460 -633 -501 0
-460 -638 -501 0
-460 526 533 581 587 582 588 631 636 632 637 633 638 501 0
-467 -533 -501 0
-467 -587 -501 0
-467 -588 -501 0
-467 -636 -501 0
-467 -637 -501 0
-467 -638 -501 0
-467 533 587 588 636 637 638 501 0
-474 501 0
-454 -520 -501 0
-454 -527 -501 0
-454 -534 -501 0
-454 -576 -501 0
-454 -582 -501 0
-454 -588 -501 0
-454 -577 -501 0
-454 -583 -501 0
-454 -589 -501 0
-454 -627 -501 0
-454 -632 -501 0
-454 -637 -501 0
-454 -628 -501 0
-454 -633 -501 0
-454 -638 -501 0
-454 520 527 534 576 582 588 577 583 589 627 632 637 628 633 638 501 0
-461 -527 -501 0
-461 -534 -501 0
-461 -582 -501 0
-461 -588 -501 0
-461 -583 -501 0
-461 -589 -501 0
-461 -632 -501 0
-461 -637 -501 0
-461 -633 -501 0
-461 -638 -501 0
-461 527 534 582 588 583 589 632 637 633 638 501 0
-468 -534 -501 0
-468 -588 -501 0
-468 -589 -501 0
-468 -637 -501 0
-468 -638 -501 0
-468 534 588 589 637 638 501 0
-475 501 0
-455 -521 -501 0
-455 -528 -501 0
-455 -535 -501 0
-455 -577 -501 0
-455 -583 -501 0
-455 -589 -501 0
-455 -628 -501 0
-455 -633 -501 0
-455 -638 -501 0
-455 521 528 535 577 583 589 628 633 638 501 0
-462 -528 -501 0
-462 -535 -501 0
-462 -583 -501 0
-462 -589 -501 0
-462 -633 -501 0
-462 -638 -501 0
-462 528 535 583 589 633 638 501 0
-469 -535 -501 0
-469 -589 -501 0
-469 -638 -501 0
-469 535 589 638 501 0
-476 501 0
-509 -457 -560 0
-509 -464 -560 0
-509 -471 -560 0
-509 -573 -560 0
-509 -579 -560 0
-509 -585 -560 0
-509 -625 -560 0
-509 -630 -560 0
-509 -635 -560 0
-509 457 464 471 573 579 585 625 630 635 560 0
-516 -464 -560 0
-516 -471 -560 0
-516 -579 -560 0
-516 -585 -560 0
-516 -630 -560 0
-516 -635 -560 0
-516 464 471 579 585 630 635 560 0
-523 -471 -560 0
-523 -585 -560 0
-523 -635 -560 0
-523 471 585 635 560 0
-530 560 0
-510 -458 -560 0
-510 -465 -560 0
-510 -472 -560 0
-510 -573 -560 0
-510 -579 -560 0
-510 -585 -560 0
-510 -574 -560 0
-510 -580 -560 0
-510 -586 -560 0
-510 -625 -560 0
-510 -630 -560 0
-510 -635 -560 0
-510 -626 -560 0
-510 -631 -560 0
-510 -636 -560 0
-510 458 465 472 573 579 585 574 580 586 625 630 635 626 631 636 560 0
-517 -465 -560 0
-517 -472 -560 0
-517 -579 -560 0
-517 -585 -560 0
-517 -580 -560 0
-517 -586 -560 0
-517 -630 -560 0
-517 -635 -560 0
-517 -631 -560 0
-517 -636 -560 0
-517 465 472 579 585 580 586 630 635 631 636 560 0
-524 -472 -560 0
-524 -585 -560 0
-524 -586 -560 0
-524 -635 -560 0
-524 -636 -560 0
-524 472 585 586 635 636 560 0
-531 560 0
-511 -459 -560 0
-511 -466 -560 0
-511 -473 -560 0
-511 -574 -560 0
-511 -580 -560 0
-511 -586 -560 0
-511 -575 -560 0
-511 -581 -560 0
-511 -587 -560 0
-511 -625 -560 0
-511 -630 -560 0
-511 -635 -560 0
-511 -626 -560 0
-511 -631 -560 0
-511 -636 -560 0
-511 -627 -560 0
-511 -632 -560 0
-511 -637 -560 0
-511 459 466 473 574 580 586 575 581 587 625 630 635 626 631 636 627 632 637 560 0
-518 -466 -560 0
-518 -473 -560 0
-518 -580 -560 0
-518 -586 -560 0
-518 -581 -560 0
-518 -587 -560 0
-518 -630 -560 0
-518 -635 -560 0
-518 -631 -560 0
-518 -636 -560 0
-518 -632 -560 0
-518 -637 -560 0
-518 466 473 580 586 581 587 630 635 631 636 632 637 560 0
-525 -473 -560 0
-525 -586 -560 0
-525 -587 -560 0
-525 -635 -560 0
-525 -636 -560 0
-525 -637 -560 0
-525 473 586 587 635 636 637 560 0
-532 560 0
-512 -460 -560 0
-512 -467 -560 0
-512 -474 -560 0
-512 -575 -560 0
-512 -581 -560 0
-512 -587 -560 0
-512 -576 -560 0
-512 -582 -560 0
-512 -588 -560 0
-512 -626 -560 0
-512 -631 -560 0
-512 -636 -560 0
-512 -627 -560 0
-512 -632 -560 0
-512 -637 -560 0
-512 -628 -560 0
-512 -633 -560 0
-512 -638 -560 0
-512 460 467 474 575 581 587 576 582 588 626 631 636 627 632 637 628 633 638 560 0
-519 -467 -560 0
-519 -474 -560 0
-519 -581 -560 0
-519 -587 -560 0
-519 -582 -560 0
-519 -588 -560 0
-519 -631 -560 0
-519 -636 -560 0
-519 -632 -560 0
-519 -637 -560 0
-519 -633 -560 0
-519 -638 -560 0
-519 467 474 581 587 582 588 631 636 632 637 633 638 560 0
-526 -474 -560 0
-526 -587 -560 0
-526 -588 -560 0
-526 -636 -560 0
-526 -637 -560 0
-526 -638 -560 0
-526 474 587 588 636 637 638 560 0
-533 560 0
-513 -461 -560 0
-513 -468 -560 0
-513 -475 -560 0
-513 -576 -560 0
-513 -582 -560 0
-513 -588 -560 0
-513 -577 -560 0
-513 -583 -560 0
-513 -589 -560 0
-513 -627 -560 0
-513 -632 -560 0
-513 -637 -560 0
-513 -628 -560 0
-513 -633 -560 0
-513 -638 -560 0
-513 461 468 475 576 582 588 577 583 589 627 632 637 628 633 638 560 0
-520 -468 -560 0
-520 -475 -560 0
-520 -582 -560 0
-520 -588 -560 0
-520 -583 -560 0
-520 -589 -560 0
-520 -632 -560 0
-520 -637 -560 0
-520 -633 -560 0
-520 -638 -560 0
-520 468 475 582 588 583 589 632 637 633 638 560 0
-527 -475 -560 0
-527 -588 -560 0
-527 -589 -560 0
-527 -637 -560 0
-527 -638 -560 0
-527 475 588 589 637 638 560 0
-534 560 0
-514 -462 -560 0
-514 -469 -560 0
-514 -476 -560 0
-514 -577 -560 0
-514 -583 -560 0
-514 -589 -560 0
-514 -628 -560 0
-514 -633 -560 0
-514 -638 -560 0
-514 462 469 476 577 583 589 628 633 638 560 0
-521 -469 -560 0
-521 -476 -560 0
-521 -583 -560 0
-521 -589 -560 0
-521 -633 -560 0
-521 -638 -560 0
-521 469 476 583 589 633 638 560 0
-528 -476 -560 0
-528 -589 -560 0
-528 -638 -560 0
-528 476 589 638 560 0
-535 560 0
-567 -457 -614 0
-567 -464 -614 0
-567 -471 -614 0
-567 -458 -614 0
-567 -465 -614 0
-567 -472 -614 0
-567 -516 -614 0
-567 -523 -614 0
-567 -530 -614 0
-567 -517 -614 0
-567 -524 -614 0
-567 -531 -614 0
-567 -625 -614 0
-567 -630 -614 0
-567 -635 -614 0
-567 -626 -614 0
-567 -631 -614 0
-567 -636 -614 0
-567 457 464 471 458 465 472 516 523 530 517 524 531 625 630 635 626 631 636 614 0
-573 -464 -614 0
-573 -471 -614 0
-573 -465 -614 0
-573 -472 -614 0
-573 -523 -614 0
-573 -530 -614 0
-573 -524 -614 0
-573 -531 -614 0
-573 -630 -614 0
-573 -635 -614 0
-573 -631 -614 0
-573 -636 -614 0
-573 464 471 465 472 523 530 524 531 630 635 631 636 614 0
-579 -471 -614 0
-579 -472 -614 0
-579 -530 -614 0
-579 -531 -614 0
-579 -635 -614 0
-579 -636 -614 0
-579 471 472 530 531 635 636 614 0
-585 614 0
-568 -458 -614 0
-568 -465 -614 0
-568 -472 -614 0
-568 -459 -614 0
-568 -466 -614 0
-568 -473 -614 0
-568 -517 -614 0
-568 -524 -614 0
-568 -531 -614 0
-568 -518 -614 0
-568 -525 -614 0
-568 -532 -614 0
-568 -625 -614 0
-568 -630 -614 0
-568 -635 -614 0
-568 -626 -614 0
-568 -631 -614 0
-568 -636 -614 0
-568 -627 -614 0
-568 -632 -614 0
-568 -637 -614 0
-568 458 465 472 459 466 473 517 524 531 518 525 532 625 630 635 626 631 636 627 632 637 614 0
-574 -465 -614 0
-574 -472 -614 0
-574 -466 -614 0
-574 -473 -614 0
-574 -524 -614 0
-574 -531 -614 0
-574 -525 -614 0
-574 -532 -614 0
-574 -630 -614 0
-574 -635 -614 0
-574 -631 -614 0
-574 -636 -614 0
-574 -632 -614 0
-574 -637 -614 0
-574 465 472 466 473 524 531 525 532 630 635 631 636 632 637 614 0
-580 -472 -614 0
-580 -473 -614 0
-580 -531 -614 0
-580 -532 -614 0
-580 -635 -614 0
-580 -636 -614 0
-580 -637 -614 0
-580 472 473 531 532 635 636 637 614 0
-586 614 0
-569 -459 -614 0
-569 -466 -614 0
-569 -473 -614 0
-569 -460 -614 0
-569 -467 -614 0
-569 -474 -614 0
-569 -518 -614 0
-569 -525 -614 0
-569 -532 -614 0
-569 -519 -614 0
-569 -526 -614 0
-569 -533 -614 0
-569 -625 -614 0
-569 -630 -614 0
-569 -635 -614 0
-569 -626 -614 0
-569 -631 -614 0
-569 -636 -614 0
-569 -627 -614 0
-569 -632 -614 0
-569 -637 -614 0
-569 -628 -614 0
-569 -633 -614 0
-569 -638 -614 0
-569 459 466 473 460 467 474 518 525 532 519 526 533 625 630 635 626 631 636 627 632 637 628 633 638 614 0
-575 -466 -614 0
-575 -473 -614 0
-575 -467 -614 0
-575 -474 -614 0
-575 -525 -614 0
-575 -532 -614 0
-575 -526 -614 0
-575 -533 -614 0
-575 -630 -614 0
-575 -635 -614 0
-575 -631 -614 0
-575 -636 -614 0
-575 -632 -614 0
-575 -637 -614 0
-575 -633 -614 0
-575 -638 -614 0
-575 466 473 467 474 525 532 526 533 630 635 631 636 632 637 633 638 614 0
-581 -473 -614 0
-581 -474 -614 0
-581 -532 -614 0
-581 -533 -614 0
-581 -635 -614 0
-581 -636 -614 0
-581 -637 -614 0
-581 -638 -614 0
-581 473 474 532 533 635 636 637 638 614 0
-587 614 0
-570 -460 -614 0
-570 -467 -614 0
-570 -474 -614 0
-570 -461 -614 0
-570 -468 -614 0
-570 -475 -614 0
-570 -519 -614 0
-570 -526 -614 0
-570 -533 -614 0
-570 -520 -614 0
-570 -527 -614 0
-570 -534 -614 0
-570 -626 -614 0
-570 -631 -614 0
-570 -636 -614 0
-570 -627 -614 0
-570 -632 -614 0
-570 -637 -614 0
-570 -628 -614 0
-570 -633 -614 0
-570 -638 -614 0
-570 460 467 474 461 468 475 519 526 533 520 527 534 626 631 636 627 632 637 628 633 638 614 0
-576 -467 -614 0
-576 -474 -614 0
-576 -468 -614 0
-576 -475 -614 0
-576 -526 -614 0
-576 -533 -614 0
-576 -527 -614 0
-576 -534 -614 0
-576 -631 -614 0
-576 -636 -614 0
-576 -632 -614 0
-576 -637 -614 0
-576 -633 -614 0
-576 -638 -614 0
-576 467 474 468 475 526 533 527 534 631 636 632 637 633 638 614 0
-582 -474 -614 0
-582 -475 -614 0
-582 -533 -614 0
-582 -534 -614 0
-582 -636 -614 0
-582 -637 -614 0
-582 -638 -614 0
-582 474 475 533 534 636 637 638 614 0
-588 614 0
-571 -461 -614 0
-571 -468 -614 0
-571 -475 -614 0
-571 -462 -614 0
-571 -469 -614 0
-571 -476 -614 0
-571 -520 -614 0
-571 -527 -614 0
-571 -534 -614 0
-571 -521 -614 0
-571 -528 -614 0
-571 -535 -614 0
-571 -627 -614 0
-571 -632 -614 0
-571 -637 -614 0
-571 -628 -614 0
-571 -633 -614 0
-571 -638 -614 0
-571 461 468 475 462 469 476 520 527 534 521 528 535 627 632 637 628 633 638 614 0
-577 -468 -614 0
-577 -475 -614 0
-577 -469 -614 0
-577 -476 -614 0
-577 -527 -614 0
-577 -534 -614 0
-577 -528 -614 0
-577 -535 -614 0
-577 -632 -614 0
-577 -637 -614 0
-577 -633 -614 0
-577 -638 -614 0
-577 468 475 469 476 527 534 528 535 632 637 633 638 614 0
-583 -475 -614 0
-583 -476 -614 0
-583 -534 -614 0
-583 -535 -614 0
-583 -637 -614 0
-583 -638 -614 0
-583 475 476 534 535 637 638 614 0
-589 614 0
-620 -457 -663 0
-620 -464 -663 0
-620 -471 -663 0
-620 -458 -663 0
-620 -465 -663 0
-620 -472 -663 0
-620 -459 -663 0
-620 -466 -663 0
-620 -473 -663 0
-620 -516 -663 0
-620 -523 -663 0
-620 -530 -663 0
-620 -517 -663 0
-620 -524 -663 0
-620 -531 -663 0
-620 -518 -663 0
-620 -525 -663 0
-620 -532 -663 0
-620 -573 -663 0
-620 -579 -663 0
-620 -585 -663 0
-620 -574 -663 0
-620 -580 -663 0
-620 -586 -663 0
-620 -575 -663 0
-620 -581 -663 0
-620 -587 -663 0
-620 457 464 471 458 465 472 459 466 473 516 523 530 517 524 531 518 525 532 573 579 585 574 580 586 575 581 587 663 0
-625 -464 -663 0
-625 -471 -663 0
-625 -465 -663 0
-625 -472 -663 0
-625 -466 -663 0
-625 -473 -663 0
-625 -523 -663 0
-625 -530 -663 0
-625 -524 -663 0
-625 -531 -663 0
-625 -525 -663 0
-625 -532 -663 0
-625 -579 -663 0
-625 -585 -663 0
-625 -580 -663 0
-625 -586 -663 0
-625 -581 -663 0
-625 -587 -663 0
-625 464 471 465 472 466 473 523 530 524 531 525 532 579 585 580 586 581 587 663 0
-630 -471 -663 0
-630 -472 -663 0
-630 -473 -663 0
-630 -530 -663 0
-630 -531 -663 0
-630 -532 -663 0
-630 -585 -663 0
-630 -586 -663 0
-630 -587 -663 0
-630 471 472 473 530 531 532 585 586 587 663 0
-635 663 0
-621 -458 -663 0
-621 -465 -663 0
-621 -472 -663 0
-621 -459 -663 0
-621 -466 -663 0
-621 -473 -663 0
-621 -460 -663 0
-621 -467 -663 0
-621 -474 -663 0
-621 -517 -663 0
-621 -524 -663 0
-621 -531 -663 0
-621 -518 -663 0
-621 -525 -663 0
-621 -532 -663 0
-621 -519 -663 0
-621 -526 -663 0
-621 -533 -663 0
-621 -573 -663 0
-621 -579 -663 0
-621 -585 -663 0
-621 -574 -663 0
-621 -580 -663 0
-621 -586 -663 0
-621 -575 -663 0
-621 -581 -663 0
-621 -587 -663 0
-621 -576 -663 0
-621 -582 -663 0
-621 -588 -663 0
-621 458 465 472 459 466 473 460 467 474 517 524 531 518 525 532 519 526 533 573 579 585 574 580 586 575 581 587 576 582 588 663 0
-626 -465 -663 0
-626 -472 -663 0
-626 -466 -663 0
-626 -473 -663 0
-626 -467 -663 0
-626 -474 -663 0
-626 -524 -663 0
-626 -531 -663 0
-626 -525 -663 0
-626 -532 -663 0
-626 -526 -663 0
-626 -533 -663 0
-626 -579 -663 0
-626 -585 -663 0
-626 -580 -663 0
-626 -586 -663 0
-626 -581 -663 0
-626 -587 -663 0
-626 -582 -663 0
-626 -588 -663 0
-626 465 472 466 473 467 474 524 531 525 532 526 533 579 585 580 586 581 587 582 588 663 0
-631 -472 -663 0
-631 -473 -663 0
-631 -474 -663 0
-631 -531 -663 0
-631 -532 -663 0
-631 -533 -663 0
-631 -585 -663 0
-631 -586 -663 0
-631 -587 -663 0
-631 -588 -663 0
-631 472 473 474 531 532 533 585 586 587 588 663 0
-636 663 0
-622 -459 -663 0
-622 -466 -663 0
-622 -473 -663 0
-622 -460 -663 0
-622 -467 -663 0
-622 -474 -663 0
-622 -461 -663 0
-622 -468 -663 0
-622 -475 -663 0
-622 -518 -663 0
-622 -525 -663 0
-622 -532 -663 0
-622 -519 -663 0
-622 -526 -663 0
-622 -533 -663 0
-622 -520 -663 0
-622 -527 -663 0
-622 -534 -663 0
-622 -574 -663 0
-622 -580 -663 0
-622 -586 -663 0
-622 -575 -663 0
-622 -581 -663 0
-622 -587 -663 0
-622 -576 -663 0
-622 -582 -663 0
-622 -588 -663 0
-622 -577 -663 0
-622 -583 -663 0
-622 -589 -663 0
-622 459 466 473 460 467 474 461 468 475 518 525 532 519 526 533 520 527 534 574 580 586 575 581 587 576 582 588 577 583 589 663 0
-627 -466 -663 0
-627 -473 -663 0
-627 -467 -663 0
-627 -474 -663 0
-627 -468 -663 0
-627 -475 -663 0
-627 -525 -663 0
-627 -532 -663 0
-627 -526 -663 0
-627 -533 -663 0
-627 -527 -663 0
-627 -534 -663 0
-627 -580 -663 0
-627 -586 -663 0
-627 -581 -663 0
-627 -587 -663 0
-627 -582 -663 0
-627 -588 -663 0
-627 -583 -663 0
-627 -589 -663 0
-627 466 473 467 474 468 475 525 532 526 533 527 534 580 586 581 587 582 588 583 589 663 0
-632 -473 -663 0
-632 -474 -663 0
-632 -475 -663 0
-632 -532 -663 0
-632 -533 -663 0
-632 -534 -663 0
-632 -586 -663 0
-632 -587 -663 0
-632 -588 -663 0
-632 -589 -663 0
-632 473 474 475 532 533 534 586 587 588 589 663 0
-637 663 0
-623 -460 -663 0
-623 -467 -663 0
-623 -474 -663 0
-623 -461 -663 0
-623 -468 -663 0
-623 -475 -663 0
-623 -462 -663 0
-623 -469 -663 0
-623 -476 -663 0
-623 -519 -663 0
-623 -526 -663 0
-623 -533 -663 0
-623 -520 -663 0
-623 -527 -663 0
-623 -534 -663 0
-623 -521 -663 0
-623 -528 -663 0
-623 -535 -663 0
-623 -575 -663 0
-623 -581 -663 0
-623 -587 -663 0
-623 -576 -663 0
-623 -582 -663 0
-623 -588 -663 0
-623 -577 -663 0
-623 -583 -663 0
-623 -589 -663 0
-623 460 467 474 461 468 475 462 469 476 519 526 533 520 527 534 521 528 535 575 581 587 576 582 588 577 583 589 663 0
-628 -467 -663 0
-628 -474 -663 0
-628 -468 -663 0
-628 -475 -663 0
-628 -469 -663 0
-628 -476 -663 0
-628 -526 -663 0
-628 -533 -663 0
-628 -527 -663 0
-628 -534 -663 0
-628 -528 -663 0
-628 -535 -663 0
-628 -581 -663 0
-628 -587 -663 0
-628 -582 -663 0
-628 -588 -663 0
-628 -583 -663 0
-628 -589 -663 0
-628 467 474 468 475 469 476 526 533 527 534 528 535 581 587 582 588 583 589 663 0
-633 -474 -663 0
-633 -475 -663 0
-633 -476 -663 0
-633 -533 -663 0
-633 -534 -663 0
-633 -535 -663 0
-633 -587 -663 0
-633 -588 -663 0
-633 -589 -663 0
-633 474 475 476 533 534 535 587 588 589 663 0
-638 663 0
-671 -737 -722 0
-671 -744 -722 0
-671 -751 -722 0
-671 -794 -722 0
-671 -800 -722 0
-671 -806 -722 0
-671 -846 -722 0
-671 -851 -722 0
-671 -856 -722 0
-671 737 744 751 794 800 806 846 851 856 722 0
-678 -744 -722 0
-678 -751 -722 0
-678 -800 -722 0
-678 -806 -722 0
-678 -851 -722 0
-678 -856 -722 0
-678 744 751 800 806 851 856 722 0
-685 -751 -722 0
-685 -806 -722 0
-685 -856 -722 0
-685 751 806 856 722 0
-692 722 0
-672 -738 -722 0
-672 -745 -722 0
-672 -752 -722 0
-672 -794 -722 0
-672 -800 -722 0
-672 -806 -722 0
-672 -795 -722 0
-672 -801 -722 0
-672 -807 -722 0
-672 -846 -722 0
-672 -851 -722 0
-672 -856 -722 0
-672 -847 -722 0
-672 -852 -722 0
-672 -857 -722 0
-672 738 745 752 794 800 806 795 801 807 846 851 856 847 852 857 722 0
-679 -745 -722 0
-679 -752 -722 0
-679 -800 -722 0
-679 -806 -722 0
-679 -801 -722 0
-679 -807 -722 0
-679 -851 -722 0
-679 -856 -722 0
-679 -852 -722 0
-679 -857 -722 0
-679 745 752 800 806 801 807 851 856 852 857 722 0
-686 -752 -722 0
-686 -806 -722 0
-686 -807 -722 0
-686 -856 -722 0
-686 -857 -722 0
-686 752 806 807 856 857 722 0
-693 722 0
-673 -739 -722 0
-673 -746 -722 0
-673 -753 -722 0
-673 -795 -722 0
-673 -801 -722 0
-673 -807 -722 0
-673 -796 -722 0
-673 -802 -722 0
-673 -808 -722 0
-673 -846 -722 0
-673 -851 -722 0
-673 -856 -722 0
-673 -847 -722 0
-673 -852 -722 0
-673 -857 -722 0
-673 -848 -722 0
-673 -853 -722 0
-673 -858 -722 0
-673 739 746 753 795 801 807 796 802 808 846 851 856 847 852 857 848 853 858 722 0
-680 -746 -722 0
-680 -753 -722 0
-680 -801 -722 0
-680 -807 -722 0
-680 -802 -722 0
-680 -808 -722 0
-680 -851 -722 0
-680 -856 -722 0
-680 -852 -722 0
-680 -857 -722 0
-680 -853 -722 0
-680 -858 -722 0
-680 746 753 801 807 802 808 851 856 852 857 853 858 722 0
-687 -753 -722 0
-687 -807 -722 0
-687 -808 -722 0
-687 -856 -722 0
-687 -857 -722 0
-687 -858 -722 0
-687 753 807 808 856 857 858 722 0
-694 722 0
-674 -740 -722 0
-674 -747 -722 0
-674 -754 -722 0
-674 -796 -722 0
-674 -802 -722 0
-674 -808 -722 0
-674 -797 -722 0
-674 -803 -722 0
-674 -809 -722 0
-674 -847 -722 0
-674 -852 -722 0
-674 -857 -722 0
-674 -848 -722 0
-674 -853 -722 0
-674 -858 -722 0
-674 -849 -722 0
-674 -854 -722 0
-674 -859 -722 0
-674 740 747 754 796 802 808 797 803 809 847 852 857 848 853 858 849 854 859 722 0
-681 -747 -722 0
-681 -754 -722 0
-681 -802 -722 0
-681 -808 -722 0
-681 -803 -722 0
-681 -809 -722 0
-681 -852 -722 0
-681 -857 -722 0
-681 -853 -722 0
-681 -858 -722 0
-681 -854 -722 0
-681 -859 -722 0
-681 747 754 802 808 803 809 852 857 853 858 854 859 722 0
-688 -754 -722 0
-688 -808 -722 0
-688 -809 -722 0
-688 -857 -722 0
-688 -858 -722 0
-688 -859 -722 0
-688 754 808 809 857 858 859 722 0
-695 722 0
-675 -741 -722 0
-675 -748 -722 0
-675 -755 -722 0
-675 -797 -722 0
-675 -803 -722 0
-675 -809 -722 0
-675 -798 -722 0
-675 -804 -722 0
-675 -810 -722 0
-675 -848 -722 0
-675 -853 -722 0
-675 -858 -722 0
-675 -849 -722 0
-675 -854 -722 0
-675 -859 -722 0
-675 741 748 755 797 803 809 798 804 810 848 853 858 849 854 859 722 0
-682 -748 -722 0
-682 -755 -722 0
-682 -803 -722 0
-682 -809 -722 0
-682 -804 -722 0
-682 -810 -722 0
-682 -853 -722 0
-682 -858 -722 0
-682 -854 -722 0
-682 -859 -722 0
-682 748 755 803 809 804 810 853 858 854 859 722 0
-689 -755 -722 0
-689 -809 -722 0
-689 -810 -722 0
-689 -858 -722 0
-689 -859 -722 0
-689 755 809 810 858 859 722 0
-696 722 0
-676 -742 -722 0
-676 -749 -722 0
-676 -756 -722 0
-676 -798 -722 0
-676 -804 -722 0
-676 -810 -722 0
-676 -849 -722 0
-676 -854 -722 0
-676 -859 -722 0
-676 742 749 756 798 804 810 849 854 859 722 0
-683 -749 -722 0
-683 -756 -722 0
-683 -804 -722 0
-683 -810 -722 0
-683 -854 -722 0
-683 -859 -722 0
-683 749 756 804 810 854 859 722 0
-690 -756 -722 0
-690 -810 -722 0
-690 -859 -722 0
-690 756 810 859 722 0
-697 722 0
-730 -678 -781 0
-730 -685 -781 0
-730 -692 -781 0
-730 -794 -781 0
-730 -800 -781 0
-730 -806 -781 0
-730 -846 -781 0
-730 -851 -781 0
-730 -856 -781 0
-730 678 685 692 794 800 806 846 851 856 781 0
-737 -685 -781 0
-737 -692 -781 0
-737 -800 -781 0
-737 -806 -781 0
-737 -851 -781 0
-737 -856 -781 0
-737 685 692 800 806 851 856 781 0
-744 -692 -781 0
-744 -806 -781 0
-744 -856 -781 0
-744 692 806 856 781 0
-751 781 0
-731 -679 -781 0
-731 -686 -781 0
-731 -693 -781 0
-731 -794 -781 0
-731 -800 -781 0
-731 -806 -781 0
-731 -795 -781 0
-731 -801 -781 0
-731 -807 -781 0
-731 -846 -781 0
-731 -851 -781 0
-731 -856 -781 0
-731 -847 -781 0
-731 -852 -781 0
-731 -857 -781 0
-731 679 686 693 794 800 806 795 801 807 846 851 856 847 852 857 781 0
-738 -686 -781 0
-738 -693 -781 0
-738 -800 -781 0
-738 -806 -781 0
-738 -801 -781 0
-738 -807 -781 0
-738 -851 -781 0
-738 -856 -781 0
-738 -852 -781 0
-738 -857 -781 0
-738 686 693 800 806 801 807 851 856 852 857 781 0
-745 -693 -781 0
-745 -806 -781 0
-745 -807 -781 0
-745 -856 -781 0
-745 -857 -781 0
-745 693 806 807 856 857 781 0
-752 781 0
-732 -680 -781 0
-732 -687 -781 0
-732 -694 -781 0
-732 -795 -781 0
-732 -801 -781 0
-732 -807 -781 0
-732 -796 -781 0
-732 -802 -781 0
-732 -808 -781 0
-732 -846 -781 0
-732 -851 -781 0
-732 -856 -781 0
-732 -847 -781 0
-732 -852 -781 0
-732 -857 -781 0
-732 -848 -781 0
-732 -853 -781 0
-732 -858 -781 0
-732 680 687 694 795 801 807 796 802 808 846 851 856 847 852 857 848 853 858 781 0
-739 -687 -781 0
-739 -694 -781 0
-739 -801 -781 0
-739 -807 -781 0
-739 -802 -781 0
-739 -808 -781 0
-739 -851 -781 0
-739 -856 -781 0
-739 -852 -781 0
-739 -857 -781 0
-739 -853 -781 0
-739 -858 -781 0
-739 687 694 801 807 802 808 851 856 852 857 853 858 781 0
-746 -694 -781 0
-746 -807 -781 0
-746 -808 -781 0
-746 -856 -781 0
-746 -857 -781 0
-746 -858 -781 0
-746 694 807 808 856 857 858 781 0
-753 781 0
-733 -681 -781 0
-733 -688 -781 0
-733 -695 -781 0
-733 -796 -781 0
-733 -802 -781 0
-733 -808 -781 0
-733 -797 -781 0
-733 -803 -781 0
-733 -809 -781 0
-733 -847 -781 0
-733 -852 -781 0
-733 -857 -781 0
-733 -848 -781 0
-733 -853 -781 0
-733 -858 -781 0
-733 -849 -781 0
-733 -854 -781 0
-733 -859 -781 0
-733 681 688 695 796 802 808 797 803 809 847 852 857 848 853 858 849 854 859 781 0
-740 -688 -781 0
-740 -695 -781 0
-740 -802 -781 0
-740 -808 -781 0
-740 -803 -781 0
-740 -809 -781 0
-740 -852 -781 0
-740 -857 -781 0
-740 -853 -781 0
-740 -858 -781 0
-740 -854 -781 0
-740 -859 -781 0
-740 688 695 802 808 803 809 852 857 853 858 854 859 781 0
-747 -695 -781 0
-747 -808 -781 0
-747 -809 -781 0
-747 -857 -781 0
-747 -858 -781 0
-747 -859 -781 0
-747 695 808 809 857 858 859 781 0
-754 781 0
-734 -682 -781 0
-734 -689 -781 0
-734 -696 -781 0
-734 -797 -781 0
-734 -803 -781 0
-734 -809 -781 0
-734 -798 -781 0
-734 -804 -781 0
-734 -810 -781 0
-734 -848 -781 0
-734 -853 -781 0
-734 -858 -781 0
-734 -849 -781 0
-734 -854 -781 0
-734 -859 -781 0
-734 682 689 696 797 803 809 798 804 810 848 853 858 849 854 859 781 0
-741 -689 -781 0
-741 -696 -781 0
-741 -803 -781 0
-741 -809 -781 0
-741 -804 -781 0
-741 -810 -781 0
-741 -853 -781 0
-741 -858 -781 0
-741 -854 -781 0
-741 -859 -781 0
-741 689 696 803 809 804 810 853 858 854 859 781 0
-748 -696 -781 0
-748 -809 -781 0
-748 -810 -781 0
-748 -858 -781 0
-748 -859 -781 0
-748 696 809 810 858 859 781 0
-755 781 0
-735 -683 -781 0
-735 -690 -781 0
-735 -697 -781 0
-735 -798 -781 0
-735 -804 -781 0
-735 -810 -781 0
-735 -849 -781 0
-735 -854 -781 0
-735 -859 -781 0
-735 683 690 697 798 804 810 849 854 859 781 0
-742 -690 -781 0
-742 -697 -781 0
-742 -804 -781 0
-742 -810 -781 0
-742 -854 -781 0
-742 -859 -781 0
-742 690 697 804 810 854 859 781 0
-749 -697 -781 0
-749 -810 -781 0
-749 -859 -781 0
-749 697 810 859 781 0
-756 781 0
-788 -678 -835 0
-788 -685 -835 0
-788 -692 -835 0
-788 -679 -835 0
-788 -686 -835 0
-788 -693 -835 0
-788 -737 -835 0
-788 -744 -835 0
-788 -751 -835 0
-788 -738 -835 0
-788 -745 -835 0
-788 -752 -835 0
-788 -846 -835 0
-788 -851 -835 0
-788 -856 -835 0
-788 -847 -835 0
-788 -852 -835 0
-788 -857 -835 0
-788 678 685 692 679 686 693 737 744 751 738 745 752 846 851 856 847 852 857 835 0
-794 -685 -835 0
-794 -692 -835 0
-794 -686 -835 0
-794 -693 -835 0
-794 -744 -835 0
-794 -751 -835 0
-794 -745 -835 0
-794 -752 -835 0
-794 -851 -835 0
-794 -856 -835 0
-794 -852 -835 0
-794 -857 -835 0
-794 685 692 686 693 744 751 745 752 851 856 852 857 835 0
-800 -692 -835 0
-800 -693 -835 0
-800 -751 -835 0
-800 -752 -835 0
-800 -856 -835 0
-800 -857 -835 0
-800 692 693 751 752 856 857 835 0
-806 835 0
-789 -679 -835 0
-789 -686 -835 0
-789 -693 -835 0
-789 -680 -835 0
-789 -687 -835 0
-789 -694 -835 0
-789 -738 -835 0
-789 -745 -835 0
-789 -752 -835 0
-789 -739 -835 0
-789 -746 -835 0
-789 -753 -835 0
-789 -846 -835 0
-789 -851 -835 0
-789 -856 -835 0
-789 -847 -835 0
-789 -852 -835 0
-789 -857 -835 0
-789 -848 -835 0
-789 -853 -835 0
-789 -858 -835 0
-789 679 686 693 680 687 694 738 745 752 739 746 753 846 851 856 847 852 857 848 853 858 835 0
-795 -686 -835 0
-795 -693 -835 0
-795 -687 -835 0
-795 -694 -835 0
-795 -745 -835 0
-795 -752 -835 0
-795 -746 -835 0
-795 -753 -835 0
-795 -851 -835 0
-795 -856 -835 0
-795 -852 -835 0
-795 -857 -835 0
-795 -853 -835 0
-795 -858 -835 0
-795 686 693 687 694 745 752 746 753 851 856 852 857 853 858 835 0
-801 -693 -835 0
-801 -694 -835 0
-801 -752 -835 0
-801 -753 -835 0
-801 -856 -835 0
-801 -857 -835 0
-801 -858 -835 0
-801 693 694 752 753 856 857 858 835 0
-807 835 0
-790 -680 -835 0
-790 -687 -835 0
-790 -694 -835 0
-790 -681 -835 0
-790 -688 -835 0
-790 -695 -835 0
-790 -739 -835 0
-790 -746 -835 0
-790 -753 -835 0
-790 -740 -835 0
-790 -747 -835 0
-790 -754 -835 0
-790 -846 -835 0
-790 -851 -835 0
-790 -856 -835 0
-790 -847 -835 0
-790 -852 -835 0
-790 -857 -835 0
-790 -848 -835 0
-790 -853 -835 0
-790 -858 -835 0
-790 -849 -835 0
-790 -854 -835 0
-790 -859 -835 0
-790 680 687 694 681 688 695 739 746 753 740 747 754 846 851 856 847 852 857 848 853 858 849 854 859 835 0
-796 -687 -835 0
-796 -694 -835 0
-796 -688 -835 0
-796 -695 -835 0
-796 -746 -835 0
-796 -753 -835 0
-796 -747 -835 0
-796 -754 -835 0
-796 -851 -835 0
-796 -856 -835 0
-796 -852 -835 0
-796 -857 -835 0
-796 -853 -835 0
-796 -858 -835 0
-796 -854 -835 0
-796 -859 -835 0
-796 687 694 688 695 746 753 747 754 851 856 852 857 853 858 854 859 835 0
-802 -694 -835 0
-802 -695 -835 0
-802 -753 -835 0
-802 -754 -835 0
-802 -856 -835 0
-802 -857 -835 0
-802 -858 -835 0
-802 -859 -835 0
-802 694 695 753 754 856 857 858 859 835 0
-808 835 0
-791 -681 -835 0
-791 -688 -835 0
-791 -695 -835 0
-791 -682 -835 0
-791 -689 -835 0
-791 -696 -835 0
-791 -740 -835 0
-791 -747 -835 0
-791 -754 -835 0
-791 -741 -835 0
-791 -748 -835 0
-791 -755 -835 0
-791 -847 -835 0
-791 -852 -835 0
-791 -857 -835 0
-791 -848 -835 0
-791 -853 -835 0
-791 -858 -835 0
-791 -849 -835 0
-791 -854 -835 0
-791 -859 -835 0
-791 681 688 695 682 689 696 740 747 754 741 748 755 847 852 857 848 853 858 849 854 859 835 0
-797 -688 -835 0
-797 -695 -835 0
-797 -689 -835 0
-797 -696 -835 0
-797 -747 -835 0
-797 -754 -835 0
-797 -748 -835 0
-797 -755 -835 0
-797 -852 -835 0
-797 -857 -835 0
-797 -853 -835 0
-797 -858 -835 0
-797 -854 -835 0
-797 -859 -835 0
-797 688 695 689 696 747 754 748 755 852 857 853 858 854 859 835 0
-803 -695 -835 0
-803 -696 -835 0
-803 -754 -835 0
-803 -755 -835 0
-803 -857 -835 0
-803 -858 -835 0
-803 -859 -835 0
-803 695 696 754 755 857 858 859 835 0
-809 835 0
-792 -682 -835 0
-792 -689 -835 0
-792 -696 -835 0
-792 -683 -835 0
-792 -690 -835 0
-792 -697 -835 0
-792 -741 -835 0
-792 -748 -835 0
-792 -755 -835 0
-792 -742 -835 0
-792 -749 -835 0
-792 -756 -835 0
-792 -848 -835 0
-792 -853 -835 0
-792 -858 -835 0
-792 -849 -835 0
-792 -854 -835 0
-792 -859 -835 0
-792 682 689 696 683 690 697 741 748 755 742 749 756 848 853 858 849 854 859 835 0
-798 -689 -835 0
-798 -696 -835 0
-798 -690 -835 0
-798 -697 -835 0
-798 -748 -835 0
-798 -755 -835 0
-798 -749 -835 0
-798 -756 -835 0
-798 -853 -835 0
-798 -858 -835 0
-798 -854 -835 0
-798 -859 -835 0
-798 689 696 690 697 748 755 749 756 853 858 854 859 835 0
-804 -696 -835 0
-804 -697 -835 0
-804 -755 -835 0
-804 -756 -835 0
-804 -858 -835 0
-804 -859 -835 0
-804 696 697 755 756 858 859 835 0
-810 835 0
-841 -678 -884 0
-841 -685 -884 0
-841 -692 -884 0
-841 -679 -884 0
-841 -686 -884 0
-841 -693 -884 0
-841 -680 -884 0
-841 -687 -884 0
-841 -694 -884 0
-841 -737 -884 0
-841 -744 -884 0
-841 -751 -884 0
-841 -738 -884 0
-841 -745 -884 0
-841 -752 -884 0
-841 -739 -884 0
-841 -746 -884 0
-841 -753 -884 0
-841 -794 -884 0
-841 -800 -884 0
-841 -806 -884 0
-841 -795 -884 0
-841 -801 -884 0
-841 -807 -884 0
-841 -796 -884 0
-841 -802 -884 0
-841 -808 -884 0
-841 678 685 692 679 686 693 680 687 694 737 744 751 738 745 752 739 746 753 794 800 806 795 801 807 796 802 808 884 0
-846 -685 -884 0
-846 -692 -884 0
-846 -686 -884 0
-846 -693 -884 0
-846 -687 -884 0
-846 -694 -884 0
-846 -744 -884 0
-846 -751 -884 0
-846 -745 -884 0
-846 -752 -884 0
-846 -746 -884 0
-846 -753 -884 0
-846 -800 -884 0
-846 -806 -884 0
-846 -801 -884 0
-846 -807 -884 0
-846 -802 -884 0
-846 -808 -884 0
-846 685 692 686 693 687 694 744 751 745 752 746 753 800 806 801 807 802 808 884 0
-851 -692 -884 0
-851 -693 -884 0
-851 -694 -884 0
-851 -751 -884 0
-851 -752 -884 0
-851 -753 -884 0
-851 -806 -884 0
-851 -807 -884 0
-851 -808 -884 0
-851 692 693 694 751 752 753 806 807 808 884 0
-856 884 0
-842 -679 -884 0
-842 -686 -884 0
-842 -693 -884 0
-842 -680 -884 0
-842 -687 -884 0
-842 -694 -884 0
-842 -681 -884 0
-842 -688 -884 0
-842 -695 -884 0
-842 -738 -884 0
-842 -745 -884 0
-842 -752 -884 0
-842 -739 -884 0
-842 -746 -884 0
-842 -753 -884 0
-842 -740 -884 0
-842 -747 -884 0
-842 -754 -884 0
-842 -794 -884 0
-842 -800 -884 0
-842 -806 -884 0
-842 -795 -884 0
-842 -801 -884 0
-842 -807 -884 0
-842 -796 -884 0
-842 -802 -884 0
-842 -808 -884 0
-842 -797 -884 0
-842 -803 -884 0
-842 -809 -884 0
-842 679 686 693 680 687 694 681 688 695 738 745 752 739 746 753 740 747 754 794 800 806 795 801 807 796 802 808 797 803 809 884 0
-847 -686 -884 0
-847 -693 -884 0
-847 -687 -884 0
-847 -694 -884 0
-847 -688 -884 0
-847 -695 -884 0
-847 -745 -884 0
-847 -752 -884 0
-847 -746 -884 0
-847 -753 -884 0
-847 -747 -884 0
-847 -754 -884 0
-847 -800 -884 0
-847 -806 -884 0
-847 -801 -884 0
-847 -807 -884 0
-847 -802 -884 0
-847 -808 -884 0
-847 -803 -884 0
-847 -809 -884 0
-847 686 693 687 694 688 695 745 752 746 753 747 754 800 806 801 807 802 808 803 809 884 0
-852 -693 -884 0
-852 -694 -884 0
-852 -695 -884 0
-852 -752 -884 0
-852 -753 -884 0
-852 -754 -884 0
-852 -806 -884 0
-852 -807 -884 0
-852 -808 -884 0
-852 -809 -884 0
-852 693 694 695 752 753 754 806 807 808 809 884 0
-857 884 0
-843 -680 -884 0
-843 -687 -884 0
-843 -694 -884 0
-843 -681 -884 0
-843 -688 -884 0
-843 -695 -884 0
-843 -682 -884 0
-843 -689 -884 0
-843 -696 -884 0
-843 -739 -884 0
-843 -746 -884 0
-843 -753 -884 0
-843 -740 -884 0
-843 -747 -884 0
-843 -754 -884 0
-843 -741 -884 0
-843 -748 -884 0
-843 -755 -884 0
-843 -795 -884 0
-843 -801 -884 0
-843 -807 -884 0
-843 -796 -884 0
-843 -802 -884 0
-843 -808 -884 0
-843 -797 -884 0
-843 -803 -884 0
-843 -809 -884 0
-843 -798 -884 0
-843 -804 -884 0
-843 -810 -884 0
-843 680 687 694 681 688 695 682 689 696 739 746 753 740 747 754 741 748 755 795 801 807 796 802 808 797 803 809 798 804 810 884 0
-848 -687 -884 0
-848 -694 -884 0
-848 -688 -884 0
-848 -695 -884 0
-848 -689 -884 0
-848 -696 -884 0
-848 -746 -884 0
-848 -753 -884 0
-848 -747 -884 0
-848 -754 -884 0
-848 -748 -884 0
-848 -755 -884 0
-848 -801 -884 0
-848 -807 -884 0
-848 -802 -884 0
-848 -808 -884 0
-848 -803 -884 0
-848 -809 -884 0
-848 -804 -884 0
-848 -810 -884 0
-848 687 694 688 695 689 696 746 753 747 754 748 755 801 807 802 808 803 809 804 810 884 0
-853 -694 -884 0
-853 -695 -884 0
-853 -696 -884 0
-853 -753 -884 0
-853 -754 -884 0
-853 -755 -884 0
-853 -807 -884 0
-853 -808 -884 0
-853 -809 -884 0
-853 -810 -884 0
-853 694 695 696 753 754 755 807 808 809 810 884 0
-858 884 0
-844 -681 -884 0
-844 -688 -884 0
-844 -695 -884 0
-844 -682 -884 0
-844 -689 -884 0
-844 -696 -884 0
-844 -683 -884 0
-844 -690 -884 0
-844 -697 -884 0
-844 -740 -884 0
-844 -747 -884 0
-844 -754 -884 0
-844 -741 -884 0
-844 -748 -884 0
-844 -755 -884 0
-844 -742 -884 0
-844 -749 -884 0
-844 -756 -884 0
-844 -796 -884 0
-844 -802 -884 0
-844 -808 -884 0
-844 -797 -884 0
-844 -803 -884 0
-844 -809 -884 0
-844 -798 -884 0
-844 -804 -884 0
-844 -810 -884 0
-844 681 688 695 682 689 696 683 690 697 740 747 754 741 748 755 742 749 756 796 802 808 797 803 809 798 804 810 884 0
-849 -688 -884 0
-849 -695 -884 0
-849 -689 -884 0
-849 -696 -884 0
-849 -690 -884 0
-849 -697 -884 0
-849 -747 -884 0
-849 -754 -884 0
-849 -748 -884 0
-849 -755 -884 0
-849 -749 -884 0
-849 -756 -884 0
-849 -802 -884 0
-849 -808 -884 0
-849 -803 -884 0
-849 -809 -884 0
-849 -804 -884 0
-849 -810 -884 0
-849 688 695 689 696 690 697 747 754 748 755 749 756 802 808 803 809 804 810 884 0
-854 -695 -884 0
-854 -696 -884 0
-854 -697 -884 0
-854 -754 -884 0
-854 -755 -884 0
-854 -756 -884 0
-854 -808 -884 0
-854 -809 -884 0
-854 -810 -884 0
-854 695 696 697 754 755 756 808 809 810 884 0
-859 884 0
-892 -958 -943 0
-892 -965 -943 0
-892 -972 -943 0
-892 -1015 -943 0
-892 -1021 -943 0
-892 -1027 -943 0
-892 -1067 -943 0
-892 -1072 -943 0
-892 -1077 -943 0
-892 958 965 972 1015 1021 1027 1067 1072 1077 943 0
-899 -965 -943 0
-899 -972 -943 0
-899 -1021 -943 0
-899 -1027 -943 0
-899 -1072 -943 0
-899 -1077 -943 0
-899 965 972 1021 1027 1072 1077 943 0
-906 -972 -943 0
-906 -1027 -943 0
-906 -1077 -943 0
-906 972 1027 1077 943 0
-913 943 0
-893 -959 -943 0
-893 -966 -943 0
-893 -973 -943 0
-893 -1015 -943 0
-893 -1021 -943 0
-893 -1027 -943 0
-893 -1016 -943 0
-893 -1022 -943 0
-893 -1028 -943 0
-893 -1067 -943 0
-893 -1072 -943 0
-893 -1077 -943 0
-893 -1068 -943 0
-893 -1073 -943 0
-893 -1078 -943 0
-893 959 966 973 1015 1021 1027 1016 1022 1028 1067 1072 1077 1068 1073 1078 943 0
-900 -966 -943 0
-900 -973 -943 0
-900 -1021 -943 0
-900 -1027 -943 0
-900 -1022 -943 0
-900 -1028 -943 0
-900 -1072 -943 0
-900 -1077 -943 0
-900 -1073 -943 0
-900 -1078 -943 0
-900 966 973 1021 1027 1022 1028 1072 1077 1073 1078 943 0
-907 -973 -943 0
-907 -1027 -943 0
-907 -1028 -943 0
-907 -1077 -943 0
-907 -1078 -943 0
-907 973 1027 1028 1077 1078 943 0
-914 943 0
-894 -960 -943 0
-894 -967 -943 0
-894 -974 -943 0
-894 -1016 -943 0
-894 -1022 -943 0
-894 -1028 -943 0
-894 -1017 -943 0
-894 -1023 -943 0
-894 -1029 -943 0
-894 -1067 -943 0
-894 -1072 -943 0
-894 -1077 -943 0
-894 -1068 -943 0
-894 -1073 -943 0
-894 -1078 -943 0
-894 -1069 -943 0
-894 -1074 -943 0
-894 -1079 -943 0
-894 960 967 974 1016 1022 1028 1017 1023 1029 1067 1072 1077 1068 1073 1078 1069 1074 1079 943 0
-901 -967 -943 0
-901 -974 -943 0
-901 -1022 -943 0
-901 -1028 -943 0
-901 -1023 -943 0
-901 -1029 -943 0
-901 -1072 -943 0
-901 -1077 -943 0
-901 -1073 -943 0
-901 -1078 -943 0
-901 -1074 -943 0
-901 -1079 -943 0
-901 967 974 1022 1028 1023 1029 1072 1077 1073 1078 1074 1079 943 0
-908 -974 -943 0
-908 -1028 -943 0
-908 -1029 -943 0
-908 -1077 -943 0
-908 -1078 -943 0
-908 -1079 -943 0
-908 974 1028 1029 1077 1078 1079 943 0
-915 943 0
-895 -961 -943 0
-895 -968 -943 0
-895 -975 -943 0
-895 -1017 -943 0
-895 -1023 -943 0
-895 -1029 -943 0
-895 -1018 -943 0
-895 -1024 -943 0
-895 -1030 -943 0
-895 -1068 -943 0
-895 -1073 -943 0
-895 -1078 -943 0
-895 -1069 -943 0
-895 -1074 -943 0
-895 -1079 -943 0
-895 -1070 -943 0
-895 -1075 -943 0
-895 -1080 -943 0
-895 961 968 975 1017 1023 1029 1018 1024 1030 1068 1073 1078 1069 1074 1079 1070 1075 1080 943 0
-902 -968 -943 0
-902 -975 -943 0
-902 -1023 -943 0
-902 -1029 -943 0
-902 -1024 -943 0
-902 -1030 -943 0
-902 -1073 -943 0
-902 -1078 -943 0
-902 -1074 -943 0
-902 -1079 -943 0
-902 -1075 -943 0
-902 -1080 -943 0
-902 968 975 1023 1029 1024 1030 1073 1078 1074 1079 1075 1080 943 0
-909 -975 -943 0
-909 -1029 -943 0
-909 -1030 -943 0
-909 -1078 -943 0
-909 -1079 -943 0
-909 -1080 -943 0
-909 975 1029 1030 1078 1079 1080 943 0
-916 943 0
-896 -962 -943 0
-896 -969 -943 0
-896 -976 -943 0
-896 -1018 -943 0
-896 -1024 -943 0
-896 -1030 -943 0
-896 -1019 -943 0
-896 -1025 -943 0
-896 -1031 -943 0
-896 -1069 -943 0
-896 -1074 -943 0
-896 -1079 -943 0
-896 -1070 -943 0
-896 -1075 -943 0
-896 -1080 -943 0
-896 962 969 976 1018 1024 1030 1019 1025 1031 1069 1074 1079 1070 1075 1080 943 0
-903 -969 -943 0
-903 -976 -943 0
-903 -1024 -943 0
-903 -1030 -943 0
-903 -1025 -943 0
-903 -1031 -943 0
-903 -1074 -943 0
-903 -1079 -943 0
-903 -1075 -943 0
-903 -1080 -943 0
-903 969 976 1024 1030 1025 1031 1074 1079 1075 1080 943 0
-910 -976 -943 0
-910 -1030 -943 0
-910 -1031 -943 0
-910 -1079 -943 0
-910 -1080 -943 0
-910 976 1030 1031 1079 1080 943 0
-917 943 0
-897 -963 -943 0
-897 -970 -943 0
-897 -977 -943 0
-897 -1019 -943 0
-897 -1025 -943 0
-897 -1031 -943 0
-897 -1070 -943 0
-897 -1075 -943 0
-897 -1080 -943 0
-897 963 970 977 1019 1025 1031 1070 1075 1080 943 0
-904 -970 -943 0
-904 -977 -943 0
-904 -1025 -943 0
-904 -1031 -943 0
-904 -1075 -943 0
-904 -1080 -943 0
-904 970 977 1025 1031 1075 1080 943 0
-911 -977 -943 0
-911 -1031 -943 0
-911 -1080 -943 0
-911 977 1031 1080 943 0
-918 943 0
-951 -899 -1002 0
-951 -906 -1002 0
-951 -913 -1002 0
-951 -1015 -1002 0
-951 -1021 -1002 0
-951 -1027 -1002 0
-951 -1067 -1002 0
-951 -1072 -1002 0
-951 -1077 -1002 0
-951 899 906 913 1015 1021 1027 1067 1072 1077 1002 0
-958 -906 -1002 0
-958 -913 -1002 0
-958 -1021 -1002 0
-958 -1027 -1002 0
-958 -1072 -1002 0
-958 -1077 -1002 0
-958 906 913 1021 1027 1072 1077 1002 0
-965 -913 -1002 0
-965 -1027 -1002 0
-965 -1077 -1002 0
-965 913 1027 1077 1002 0
-972 1002 0
-952 -900 -1002 0
-952 -907 -1002 0
-952 -914 -1002 0
-952 -1015 -1002 0
-952 -1021 -1002 0
-952 -1027 -1002 0
-952 -1016 -1002 0
-952 -1022 -1002 0
-952 -1028 -1002 0
-952 -1067 -1002 0
-952 -1072 -1002 0
-952 -1077 -1002 0
-952 -1068 -1002 0
-952 -1073 -1002 0
-952 -1078 -1002 0
-952 900 907 914 1015 1021 1027 1016 1022 1028 1067 1072 1077 1068 1073 1078 1002 0
-959 -907 -1002 0
-959 -914 -1002 0
-959 -1021 -1002 0
-959 -1027 -1002 0
-959 -1022 -1002 0
-959 -1028 -1002 0
-959 -1072 -1002 0
-959 -1077 -1002 0
-959 -1073 -1002 0
-959 -1078 -1002 0
-959 907 914 1021 1027 1022 1028 1072 1077 1073 1078 1002 0
-966 -914 -1002 0
-966 -1027 -1002 0
-966 -1028 -1002 0
-966 -1077 -1002 0
-966 -1078 -1002 0
-966 914 1027 1028 1077 1078 1002 0
-973 1002 0
-953 -901 -1002 0
-953 -908 -1002 0
-953 -915 -1002 0
-953 -1016 -1002 0
-953 -1022 -1002 0
-953 -1028 -1002 0
-953 -1017 -1002 0
-953 -1023 -1002 0
-953 -1029 -1002 0
-953 -1067 -1002 0
-953 -1072 -1002 0
-953 -1077 -1002 0
-953 -1068 -1002 0
-953 -1073 -1002 0
-953 -1078 -1002 0
-953 -1069 -1002 0
-953 -1074 -1002 0
-953 -1079 -1002 0
-953 901 908 915 1016 1022 1028 1017 1023 1029 1067 1072 1077 1068 1073 1078 1069 1074 1079 1002 0
-960 -908 -1002 0
-960 -915 -1002 0
-960 -1022 -1002 0
-960 -1028 -1002 0
-960 -1023 -1002 0
-960 -1029 -1002 0
-960 -1072 -1002 0
-960 -1077 -1002 0
-960 -1073 -1002 0
-960 -1078 -1002 0
-960 -1074 -1002 0
-960 -1079 -1002 0
-960 908 915 1022 1028 1023 1029 1072 1077 1073 1078 1074 1079 1002 0
-967 -915 -1002 0
-967 -1028 -1002 0
-967 -1029 -1002 0
-967 -1077 -1002 0
-967 -1078 -1002 0
-967 -1079 -1002 0
-967 915 1028 1029 1077 1078 1079 1002 0
-974 1002 0
-954 -902 -1002 0
-954 -909 -1002 0
-954 -916 -1002 0
-954 -1017 -1002 0
-954 -1023 -1002 0
-954 -1029 -1002 0
-954 -1018 -1002 0
-954 -1024 -1002 0
-954 -1030 -1002 0
-954 -1068 -1002 0
-954 -1073 -1002 0
-954 -1078 -1002 0
-954 -1069 -1002 0
-954 -1074 -1002 0
-954 -1079 -1002 0
-954 -1070 -1002 0
-954 -1075 -1002 0
-954 -1080 -1002 0
-954 902 909 916 1017 1023 1029 1018 1024 1030 1068 1073 1078 1069 1074 1079 1070 1075 1080 1002 0
-961 -909 -1002 0
-961 -916 -1002 0
-961 -1023 -1002 0
-961 -1029 -1002 0
-961 -1024 -1002 0
-961 -1030 -1002 0
-961 -1073 -1002 0
-961 -1078 -1002 0
-961 -1074 -1002 0
-961 -1079 -1002 0
-961 -1075 -1002 0
-961 -1080 -1002 0
-961 909 916 1023 1029 1024 1030 1073 1078 1074 1079 1075 1080 1002 0
-968 -916 -1002 0
-968 -1029 -1002 0
-968 -1030 -1002 0
-968 -1078 -1002 0
-968 -1079 -1002 0
-968 -1080 -1002 0
-968 916 1029 1030 1078 1079 1080 1002 0
-975 1002 0
-955 -903 -1002 0
-955 -910 -1002 0
-955 -917 -1002 0
-955 -1018 -1002 0
-955 -1024 -1002 0
-955 -1030 -1002 0
-955 -1019 -1002 0
-955 -1025 -1002 0
-955 -1031 -1002 0
-955 -1069 -1002 0
-955 -1074 -1002 0
-955 -1079 -1002 0
-955 -1070 -1002 0
-955 -1075 -1002 0
-955 -1080 -1002 0
-955 903 910 917 1018 1024 1030 1019 1025 1031 1069 1074 1079 1070 1075 1080 1002 0
-962 -910 -1002 0
-962 -917 -1002 0
-962 -1024 -1002 0
-962 -1030 -1002 0
-962 -1025 -1002 0
-962 -1031 -1002 0
-962 -1074 -1002 0
-962 -1079 -1002 0
-962 -1075 -1002 0
-962 -1080 -1002 0
-962 910 917 1024 1030 1025 1031 1074 1079 1075 1080 1002 0
-969 -917 -1002 0
-969 -1030 -1002 0
-969 -1031 -1002 0
-969 -1079 -1002 0
-969 -1080 -1002 0
-969 917 1030 1031 1079 1080 1002 0
-976 1002 0
-956 -904 -1002 0
-956 -911 -1002 0
-956 -918 -1002 0
-956 -1019 -1002 0
-956 -1025 -1002 0
-956 -1031 -1002 0
-956 -1070 -1002 0
-956 -1075 -1002 0
-956 -1080 -1002 0
-956 904 911 918 1019 1025 1031 1070 1075 1080 1002 0
-963 -911 -1002 0
-963 -918 -1002 0
-963 -1025 -1002 0
-963 -1031 -1002 0
-963 -1075 -1002 0
-963 -1080 -1002 0
-963 911 918 1025 1031 1075 1080 1002 0
-970 -918 -1002 0
-970 -1031 -1002 0
-970 -1080 -1002 0
-970 918 1031 1080 1002 0
-977 1002 0
-1009 -899 -1056 0
-1009 -906 -1056 0
-1009 -913 -1056 0
-1009 -900 -1056 0
-1009 -907 -1056 0
-1009 -914 -1056 0
-1009 -958 -1056 0
-1009 -965 -1056 0
-1009 -972 -1056 0
-1009 -959 -1056 0
-1009 -966 -1056 0
-1009 -973 -1056 0
-1009 -1067 -1056 0
-1009 -1072 -1056 0
-1009 -1077 -1056 0
-1009 -1068 -1056 0
-1009 -1073 -1056 0
-1009 -1078 -1056 0
-1009 899 906 913 900 907 914 958 965 972 959 966 973 1067 1072 1077 1068 1073 1078 1056 0
-1015 -906 -1056 0
-1015 -913 -1056 0
-1015 -907 -1056 0
-1015 -914 -1056 0
-1015 -965 -1056 0
-1015 -972 -1056 0
-1015 -966 -1056 0
-1015 -973 -1056 0
-1015 -1072 -1056 0
-1015 -1077 -1056 0
-1015 -1073 -1056 0
-1015 -1078 -1056 0
-1015 906 913 907 914 965 972 966 973 1072 1077 1073 1078 1056 0
-1021 -913 -1056 0
-1021 -914 -1056 0
-1021 -972 -1056 0
-1021 -973 -1056 0
-1021 -1077 -1056 0
-1021 -1078 -1056 0
-1021 913 914 972 973 1077 1078 1056 0
-1027 1056 0
-1010 -900 -1056 0
-1010 -907 -1056 0
-1010 -914 -1056 0
-1010 -901 -1056 0
-1010 -908 -1056 0
-1010 -915 -1056 0
-1010 -959 -1056 0
-1010 -966 -1056 0
-1010 -973 -1056 0
-1010 -960 -1056 0
-1010 -967 -1056 0
-1010 -974 -1056 0
-1010 -1067 -1056 0
-1010 -1072 -1056 0
-1010 -1077 -1056 0
-1010 -1068 -1056 0
-1010 -1073 -1056 0
-1010 -1078 -1056 0
-1010 -1069 -1056 0
-1010 -1074 -1056 0
-1010 -1079 -1056 0
-1010 900 907 914 901 908 915 959 966 973 960 967 974 1067 1072 1077 1068 1073 1078 1069 1074 1079 1056 0
-1016 -907 -1056 0
-1016 -914 -1056 0
-1016 -908 -1056 0
-1016 -915 -1056 0
-1016 -966 -1056 0
-1016 -973 -1056 0
-1016 -967 -1056 0
-1016 -974 -1056 0
-1016 -1072 -1056 0
-1016 -1077 -1056 0
-1016 -1073 -1056 0
-1016 -1078 -1056 0
-1016 -1074 -1056 0
-1016 -1079 -1056 0
-1016 907 914 908 915 966 973 967 974 1072 1077 1073 1078 1074 1079 1056 0
-1022 -914 -1056 0
-1022 -915 -1056 0
-1022 -973 -1056 0
-1022 -974 -1056 0
-1022 -1077 -1056 0
-1022 -1078 -1056 0
-1022 -1079 -1056 0
-1022 914 915 973 974 1077 1078 1079 1056 0
-1028 1056 0
-1011 -901 -1056 0
-1011 -908 -1056 0
-1011 -915 -1056 0
-1011 -902 -1056 0
-1011 -909 -1056 0
-1011 -916 -1056 0
-1011 -960 -1056 0
-1011 -967 -1056 0
-1011 -974 -1056 0
-1011 -961 -1056 0
-1011 -968 -1056 0
-1011 -975 -1056 0
-1011 -1067 -1056 0
-1011 -1072 -1056 0
-1011 -1077 -1056 0
-1011 -1068 -1056 0
-1011 -1073 -1056 0
-1011 -1078 -1056 0
-1011 -1069 -1056 0
-1011 -1074 -1056 0
-1011 -1079 -1056 0
-1011 -1070 -1056 0
-1011 -1075 -1056 0
-1011 -1080 -1056 0
-1011 901 908 915 902 909 916 960 967 974 961 968 975 1067 1072 1077 1068 1073 1078 1069 1074 1079 1070 1075 1080 1056 0
-1017 -908 -1056 0
-1017 -915 -1056 0
-1017 -909 -1056 0
-1017 -916 -1056 0
-1017 -967 -1056 0
-1017 -974 -1056 0
-1017 -968 -1056 0
-1017 -975 -1056 0
-1017 -1072 -1056 0
-1017 -1077 -1056 0
-1017 -1073 -1056 0
-1017 -1078 -1056 0
-1017 -1074 -1056 0
-1017 -1079 -1056 0
-1017 -1075 -1056 0
-1017 -1080 -1056 0
-1017 908 915 909 916 967 974 968 975 1072 1077 1073 1078 1074 1079 1075 1080 1056 0
-1023 -915 -1056 0
-1023 -916 -1056 0
-1023 -974 -1056 0
-1023 -975 -1056 0
-1023 -1077 -1056 0
-1023 -1078 -1056 0
-1023 -1079 -1056 0
-1023 -1080 -1056 0
-1023 915 916 974 975 1077 1078 1079 1080 1056 0
-1029 1056 0
-1012 -902 -1056 0
-1012 -909 -1056 0
-1012 -916 -1056 0
-1012 -903 -1056 0
-1012 -910 -1056 0
-1012 -917 -1056 0
-1012 -961 -1056 0
-1012 -968 -1056 0
-1012 -975 -1056 0
-1012 -962 -1056 0
-1012 -969 -1056 0
-1012 -976 -1056 0
-1012 -1068 -1056 0
-1012 -1073 -1056 0
-1012 -1078 -1056 0
-1012 -1069 -1056 0
-1012 -1074 -1056 0
-1012 -1079 -1056 0
-1012 -1070 -1056 0
-1012 -1075 -1056 0
-1012 -1080 -1056 0
-1012 902 909 916 903 910 917 961 968 975 962 969 976 1068 1073 1078 1069 1074 1079 1070 1075 1080 1056 0
-1018 -909 -1056 0
-1018 -916 -1056 0
-1018 -910 -1056 0
-1018 -917 -1056 0
-1018 -968 -1056 0
-1018 -975 -1056 0
-1018 -969 -1056 0
-1018 -976 -1056 0
-1018 -1073 -1056 0
-1018 -1078 -1056 0
-1018 -1074 -1056 0
-1018 -1079 -1056 0
-1018 -1075 -1056 0
-1018 -1080 -1056 0
-1018 909 916 910 917 968 975 969 976 1073 1078 1074 1079 1075 1080 1056 0
-1024 -916 -1056 0
-1024 -917 -1056 0
-1024 -975 -1056 0
-1024 -976 -1056 0
-1024 -1078 -1056 0
-1024 -1079 -1056 0
-1024 -1080 -1056 0
-1024 916 917 975 976 1078 1079 1080 1056 0
-1030 1056 0
-1013 -903 -1056 0
-1013 -910 -1056 0
-1013 -917 -1056 0
-1013 -904 -1056 0
-1013 -911 -1056 0
-1013 -918 -1056 0
-1013 -962 -1056 0
-1013 -969 -1056 0
-1013 -976 -1056 0
-1013 -963 -1056 0
-1013 -970 -1056 0
-1013 -977 -1056 0
-1013 -1069 -1056 0
-1013 -1074 -1056 0
-1013 -1079 -1056 0
-1013 -1070 -1056 0
-1013 -1075 -1056 0
-1013 -1080 -1056 0
-1013 903 910 917 904 911 918 962 969 976 963 970 977 1069 1074 1079 1070 1075 1080 1056 0
-1019 -910 -1056 0
-1019 -917 -1056 0
-1019 -911 -1056 0
-1019 -918 -1056 0
-1019 -969 -1056 0
-1019 -976 -1056 0
-1019 -970 -1056 0
-1019 -977 -1056 0
-1019 -1074 -1056 0
-1019 -1079 -1056 0
-1019 -1075 -1056 0
-1019 -1080 -1056 0
-1019 910 917 911 918 969 976 970 977 1074 1079 1075 1080 1056 0
-1025 -917 -1056 0
-1025 -918 -1056 0
-1025 -976 -1056 0
-1025 -977 -1056 0
-1025 -1079 -1056 0
-1025 -1080 -1056 0
-1025 917 918 976 977 1079 1080 1056 0
-1031 1056 0
-1062 -899 -1105 0
-1062 -906 -1105 0
-1062 -913 -1105 0
-1062 -900 -1105 0
-1062 -907 -1105 0
-1062 -914 -1105 0
-1062 -901 -1105 0
-1062 -908 -1105 0
-1062 -915 -1105 0
-1062 -958 -1105 0
-1062 -965 -1105 0
-1062 -972 -1105 0
-1062 -959 -1105 0
-1062 -966 -1105 0
-1062 -973 -1105 0
-1062 -960 -1105 0
-1062 -967 -1105 0
-1062 -974 -1105 0
-1062 -1015 -1105 0
-1062 -1021 -1105 0
-1062 -1027 -1105 0
-1062 -1016 -1105 0
-1062 -1022 -1105 0
-1062 -1028 -1105 0
-1062 -1017 -1105 0
-1062 -1023 -1105 0
-1062 -1029 -1105 0
-1062 899 906 913 900 907 914 901 908 915 958 965 972 959 966 973 960 967 974 1015 1021 1027 1016 1022 1028 1017 1023 1029 1105 0
-1067 -906 -1105 0
-1067 -913 -1105 0
-1067 -907 -1105 0
-1067 -914 -1105 0
-1067 -908 -1105 0
-1067 -915 -1105 0
-1067 -965 -1105 0
-1067 -972 -1105 0
-1067 -966 -1105 0
-1067 -973 -1105 0
-1067 -967 -1105 0
-1067 -974 -1105 0
-1067 -1021 -1105 0
-1067 -1027 -1105 0
-1067 -1022 -1105 0
-1067 -1028 -1105 0
-1067 -1023 -1105 0
-1067 -1029 -1105 0
-1067 906 913 907 914 908 915 965 972 966 973 967 974 1021 1027 1022 1028 1023 1029 1105 0
-1072 -913 -1105 0
-1072 -914 -1105 0
-1072 -915 -1105 0
-1072 -972 -1105 0
-1072 -973 -1105 0
-1072 -974 -1105 0
-1072 -1027 -1105 0
-1072 -1028 -1105 0
-1072 -1029 -1105 0
-1072 913 914 915 972 973 974 1027 1028 1029 1105 0
-1077 1105 0
-1063 -900 -1105 0
-1063 -907 -1105 0
-1063 -914 -1105 0
-1063 -901 -1105 0
-1063 -908 -1105 0
-1063 -915 -1105 0
-1063 -902 -1105 0
-1063 -909 -1105 0
-1063 -916 -1105 0
-1063 -959 -1105 0
-1063 -966 -1105 0
-1063 -973 -1105 0
-1063 -960 -1105 0
-1063 -967 -1105 0
-1063 -974 -1105 0
-1063 -961 -1105 0
-1063 -968 -1105 0
-1063 -975 -1105 0
-1063 -1015 -1105 0
-1063 -1021 -1105 0
-1063 -1027 -1105 0
-1063 -1016 -1105 0
-1063 -1022 -1105 0
-1063 -1028 -1105 0
-1063 -1017 -1105 0
-1063 -1023 -1105 0
-1063 -1029 -1105 0
-1063 -1018 -1105 0
-1063 -1024 -1105 0
-1063 -1030 -1105 0
-1063 900 907 914 901 908 915 902 909 916 959 966 973 960 967 974 961 968 975 1015 1021 1027 1016 1022 1028 1017 1023 1029 1018 1024 1030 1105 0
-1068 -907 -1105 0
-1068 -914 -1105 0
-1068 -908 -1105 0
-1068 -915 -1105 0
-1068 -909 -1105 0
-1068 -916 -1105 0
-1068 -966 -1105 0
-1068 -973 -1105 0
-1068 -967 -1105 0
-1068 -974 -1105 0
-1068 -968 -1105 0
-1068 -975 -1105 0
-1068 -1021 -1105 0
-1068 -1027 -1105 0
-1068 -1022 -1105 0
-1068 -1028 -1105 0
-1068 -1023 -1105 0
-1068 -1029 -1105 0
-1068 -1024 -1105 0
-1068 -1030 -1105 0
-1068 907 914 908 915 909 916 966 973 967 974 968 975 1021 1027 1022 1028 1023 1029 1024 1030 1105 0
-1073 -914 -1105 0
-1073 -915 -1105 0
-1073 -916 -1105 0
-1073 -973 -1105 0
-1073 -974 -1105 0
-1073 -975 -1105 0
-1073 -1027 -1105 0
-1073 -1028 -1105 0
-1073 -1029 -1105 0
-1073 -1030 -1105 0
-1073 914 915 916 973 974 975 1027 1028 1029 1030 1105 0
-1078 1105 0
-1064 -901 -1105 0
-1064 -908 -1105 0
-1064 -915 -1105 0
-1064 -902 -1105 0
-1064 -909 -1105 0
-1064 -916 -1105 0
-1064 -903 -1105 0
-1064 -910 -1105 0
-1064 -917 -1105 0
-1064 -960 -1105 0
-1064 -967 -1105 0
-1064 -974 -1105 0
-1064 -961 -1105 0
-1064 -968 -1105 0
-1064 -975 -1105 0
-1064 -962 -1105 0
-1064 -969 -1105 0
-1064 -976 -1105 0
-1064 -1016 -1105 0
-1064 -1022 -1105 0
-1064 -1028 -1105 0
-1064 -1017 -1105 0
-1064 -1023 -1105 0
-1064 -1029 -1105 0
-1064 -1018 -1105 0
-1064 -1024 -1105 0
-1064 -1030 -1105 0
-1064 -1019 -1105 0
-1064 -1025 -1105 0
-1064 -1031 -1105 0
-1064 901 908 915 902 909 916 903 910 917 960 967 974 961 968 975 962 969 976 1016 1022 1028 1017 1023 1029 1018 1024 1030 1019 1025 1031 1105 0
-1069 -908 -1105 0
-1069 -915 -1105 0
-1069 -909 -1105 0
-1069 -916 -1105 0
-1069 -910 -1105 0
-1069 -917 -1105 0
-1069 -967 -1105 0
-1069 -974 -1105 0
-1069 -968 -1105 0
-1069 -975 -1105 0
-1069 -969 -1105 0
-1069 -976 -1105 0
-1069 -1022 -1105 0
-1069 -1028 -1105 0
-1069 -1023 -1105 0
-1069 -1029 -1105 0
-1069 -1024 -1105 0
-1069 -1030 -1105 0
-1069 -1025 -1105 0
-1069 -1031 -1105 0
-1069 908 915 909 916 910 917 967 974 968 975 969 976 1022 1028 1023 1029 1024 1030 1025 1031 1105 0
-1074 -915 -1105 0
-1074 -916 -1105 0
-1074 -917 -1105 0
-1074 -974 -1105 0
-1074 -975 -1105 0
-1074 -976 -1105 0
-1074 -1028 -1105 0
-1074 -1029 -1105 0
-1074 -1030 -1105 0
-1074 -1031 -1105 0
-1074 915 916 917 974 975 976 1028 1029 1030 1031 1105 0
-1079 1105 0
-1065 -902 -1105 0
-1065 -909 -1105 0
-1065 -916 -1105 0
-1065 -903 -1105 0
-1065 -910 -1105 0
-1065 -917 -1105 0
-1065 -904 -1105 0
-1065 -911 -1105 0
-1065 -918 -1105 0
-1065 -961 -1105 0
-1065 -968 -1105 0
-1065 -975 -1105 0
-1065 -962 -1105 0
-1065 -969 -1105 0
-1065 -976 -1105 0
-1065 -963 -1105 0
-1065 -970 -1105 0
-1065 -977 -1105 0
-1065 -1017 -1105 0
-1065 -1023 -1105 0
-1065 -1029 -1105 0
-1065 -1018 -1105 0
-1065 -1024 -1105 0
-1065 -1030 -1105 0
-1065 -1019 -1105 0
-1065 -1025 -1105 0
-1065 -1031 -1105 0
-1065 902 909 916 903 910 917 904 911 918 961 968 975 962 969 976 963 970 977 1017 1023 1029 1018 1024 1030 1019 1025 1031 1105 0
-1070 -909 -1105 0
-1070 -916 -1105 0
-1070 -910 -1105 0
-1070 -917 -1105 0
-1070 -911 -1105 0
-1070 -918 -1105 0
-1070 -968 -1105 0
-1070 -975 -1105 0
-1070 -969 -1105 0
-1070 -976 -1105 0
-1070 -970 -1105 0
-1070 -977 -1105 0
-1070 -1023 -1105 0
-1070 -1029 -1105 0
-1070 -1024 -1105 0
-1070 -1030 -1105 0
-1070 -1025 -1105 0
-1070 -1031 -1105 0
-1070 909 916 910 917 911 918 968 975 969 976 970 977 1023 1029 1024 1030 1025 1031 1105 0
-1075 -916 -1105 0
-1075 -917 -1105 0
-1075 -918 -1105 0
-1075 -975 -1105 0
-1075 -976 -1105 0
-1075 -977 -1105 0
-1075 -1029 -1105 0
-1075 -1030 -1105 0
-1075 -1031 -1105 0
-1075 916 917 918 975 976 977 1029 1030 1031 1105 0
-1080 1105 0
-1113 -1179 -1164 0
-1113 -1186 -1164 0
-1113 -1193 -1164 0
-1113 -1236 -1164 0
-1113 -1242 -1164 0
-1113 -1248 -1164 0
-1113 -1288 -1164 0
-1113 -1293 -1164 0
-1113 -1298 -1164 0
-1113 1179 1186 1193 1236 1242 1248 1288 1293 1298 1164 0
-1120 -1186 -1164 0
-1120 -1193 -1164 0
-1120 -1242 -1164 0
-1120 -1248 -1164 0
-1120 -1293 -1164 0
-1120 -1298 -1164 0
-1120 1186 1193 1242 1248 1293 1298 1164 0
-1127 -1193 -1164 0
-1127 -1248 -1164 0
-1127 -1298 -1164 0
-1127 1193 1248 1298 1164 0
-1134 1164 0
-1114 -1180 -1164 0
-1114 -1187 -1164 0
-1114 -1194 -1164 0
-1114 -1236 -1164 0
-1114 -1242 -1164 0
-1114 -1248 -1164 0
-1114 -1237 -1164 0
-1114 -1243 -1164 0
-1114 -1249 -1164 0
-1114 -1288 -1164 0
-1114 -1293 -1164 0
-1114 -1298 -1164 0
-1114 -1289 -1164 0
-1114 -1294 -1164 0
-1114 -1299 -1164 0
-1114 1180 1187 1194 1236 1242 1248 1237 1243 1249 1288 1293 1298 1289 1294 1299 1164 0
-1121 -1187 -1164 0
-1121 -1194 -1164 0
-1121 -1242 -1164 0
-1121 -1248 -1164 0
-1121 -1243 -1164 0
-1121 -1249 -1164 0
-1121 -1293 -1164 0
-1121 -1298 -1164 0
-1121 -1294 -1164 0
-1121 -1299 -1164 0
-1121 1187 1194 1242 1248 1243 1249 1293 1298 1294 1299 1164 0
-1128 -1194 -1164 0
-1128 -1248 -1164 0
-1128 -1249 -1164 0
-1128 -1298 -1164 0
-1128 -1299 -1164 0
-1128 1194 1248 1249 1298 1299 1164 0
-1135 1164 0
-1115 -1181 -1164 0
-1115 -1188 -1164 0
-1115 -1195 -1164 0
-1115 -1237 -1164 0
-1115 -1243 -1164 0
-1115 -1249 -1164 0
-1115 -1238 -1164 0
-1115 -1244 -1164 0
-1115 -1250 -1164 0
-1115 -1288 -1164 0
-1115 -1293 -1164 0
-1115 -1298 -1164 0
-1115 -1289 -1164 0
-1115 -1294 -1164 0
-1115 -1299 -1164 0
-1115 -1290 -1164 0
-1115 -1295 -1164 0
-1115 -1300 -1164 0
-1115 1181 1188 1195 1237 1243 1249 1238 1244 1250 1288 1293 1298 1289 1294 1299 1290 1295 1300 1164 0
-1122 -1188 -1164 0
-1122 -1195 -1164 0
-1122 -1243 -1164 0
-1122 -1249 -1164 0
-1122 -1244 -1164 0
-1122 -1250 -1164 0
-1122 -1293 -1164 0
-1122 -1298 -1164 0
-1122 -1294 -1164 0
-1122 -1299 -1164 0
-1122 -1295 -1164 0
-1122 -1300 -1164 0
-1122 1188 1195 1243 1249 1244 1250 1293 1298 1294 1299 1295 1300 1164 0
-1129 -1195 -1164 0
-1129 -1249 -1164 0
-1129 -1250 -1164 0
-1129 -1298 -1164 0
-1129 -1299 -1164 0
-1129 -1300 -1164 0
-1129 1195 1249 1250 1298 1299 1300 1164 0
-1136 1164 0
-1116 -1182 -1164 0
-1116 -1189 -1164 0
-1116 -1196 -1164 0
-1116 -1238 -1164 0
-1116 -1244 -1164 0
-1116 -1250 -1164 0
-1116 -1239 -1164 0
-1116 -1245 -1164 0
-1116 -1251 -1164 0
-1116 -1289 -1164 0
-1116 -1294 -1164 0
-1116 -1299 -1164 0
-1116 -1290 -1164 0
-1116 -1295 -1164 0
-1116 -1300 -1164 0
-1116 -1291 -1164 0
-1116 -1296 -1164 0
-1116 -1301 -1164 0
-1116 1182 1189 1196 1238 1244 1250 1239 1245 1251 1289 1294 1299 1290 1295 1300 1291 1296 1301 1164 0
-1123 -1189 -1164 0
-1123 -1196 -1164 0
-1123 -1244 -1164 0
-1123 -1250 -1164 0
-1123 -1245 -1164 0
-1123 -1251 -1164 0
-1123 -1294 -1164 0
-1123 -1299 -1164 0
-1123 -1295 -1164 0
-1123 -1300 -1164 0
-1123 -1296 -1164 0
-1123 -1301 -1164 0
-1123 1189 1196 1244 1250 1245 1251 1294 1299 1295 1300 1296 1301 1164 0
-1130 -1196 -1164 0
-1130 -1250 -1164 0
-1130 -1251 -1164 0
-1130 -1299 -1164 0
-1130 -1300 -1164 0
-1130 -1301 -1164 0
-1130 1196 1250 1251 1299 1300 1301 1164 0
-1137 1164 0
-1117 -1183 -1164 0
-1117 -1190 -1164 0
-1117 -1197 -1164 0
-1117 -1239 -1164 0
-1117 -1245 -1164 0
-1117 -1251 -1164 0
-1117 -1240 -1164 0
-1117 -1246 -1164 0
-1117 -1252 -1164 0
-1117 -1290 -1164 0
-1117 -1295 -1164 0
-1117 -1300 -1164 0
-1117 -1291 -1164 0
-1117 -1296 -1164 0
-1117 -1301 -1164 0
-1117 1183 1190 1197 1239 1245 1251 1240 1246 1252 1290 1295 1300 1291 1296 1301 1164 0
-1124 -1190 -1164 0
-1124 -1197 -1164 0
-1124 -1245 -1164 0
-1124 -1251 -1164 0
-1124 -1246 -1164 0
-1124 -1252 -1164 0
-1124 -1295 -1164 0
-1124 -1300 -1164 0
-1124 -1296 -1164 0
-1124 -1301 -1164 0
-1124 1190 1197 1245 1251 1246 1252 1295 1300 1296 1301 1164 0
-1131 -1197 -1164 0
-1131 -1251 -1164 0
-1131 -1252 -1164 0
-1131 -1300 -1164 0
-1131 -1301 -1164 0
-1131 1197 1251 1252 1300 1301 1164 0
-1138 1164 0
-1118 -1184 -1164 0
-1118 -1191 -1164 0
-1118 -1198 -1164 0
-1118 -1240 -1164 0
-1118 -1246 -1164 0
-1118 -1252 -1164 0
-1118 -1291 -1164 0
-1118 -1296 -1164 0
-1118 -1301 -1164 0
-1118 1184 1191 1198 1240 1246 1252 1291 1296 1301 1164 0
-1125 -1191 -1164 0
-1125 -1198 -1164 0
-1125 -1246 -1164 0
-1125 -1252 -1164 0
-1125 -1296 -1164 0
-1125 -1301 -1164 0
-1125 1191 1198 1246 1252 1296 1301 1164 0
-1132 -1198 -1164 0
-1132 -1252 -1164 0
-1132 -1301 -1164 0
-1132 1198 1252 1301 1164 0
-1139 1164 0
-1172 -1120 -1223 0
-1172 -1127 -1223 0
-1172 -1134 -1223 0
-1172 -1236 -1223 0
-1172 -1242 -1223 0
-1172 -1248 -1223 0
-1172 -1288 -1223 0
-1172 -1293 -1223 0
-1172 -1298 -1223 0
-1172 1120 1127 1134 1236 1242 1248 1288 1293 1298 1223 0
-1179 -1127 -1223 0
-1179 -1134 -1223 0
-1179 -1242 -1223 0
-1179 -1248 -1223 0
-1179 -1293 -1223 0
-1179 -1298 -1223 0
-1179 1127 1134 1242 1248 1293 1298 1223 0
-1186 -1134 -1223 0
-1186 -1248 -1223 0
-1186 -1298 -1223 0
-1186 1134 1248 1298 1223 0
-1193 1223 0
-1173 -1121 -1223 0
-1173 -1128 -1223 0
-1173 -1135 -1223 0
-1173 -1236 -1223 0
-1173 -1242 -1223 0
-1173 -1248 -1223 0
-1173 -1237 -1223 0
-1173 -1243 -1223 0
-1173 -1249 -1223 0
-1173 -1288 -1223 0
-1173 -1293 -1223 0
-1173 -1298 -1223 0
-1173 -1289 -1223 0
-1173 -1294 -1223 0
-1173 -1299 -1223 0
-1173 1121 1128 1135 1236 1242 1248 1237 1243 1249 1288 1293 1298 1289 1294 1299 1223 0
-1180 -1128 -1223 0
-1180 -1135 -1223 0
-1180 -1242 -1223 0
-1180 -1248 -1223 0
-1180 -1243 -1223 0
-1180 -1249 -1223 0
-1180 -1293 -1223 0
-1180 -1298 -1223 0
-1180 -1294 -1223 0
-1180 -1299 -1223 0
-1180 1128 1135 1242 1248 1243 1249 1293 1298 1294 1299 1223 0
-1187 -1135 -1223 0
-1187 -1248 -1223 0
-1187 -1249 -1223 0
-1187 -1298 -1223 0
-1187 -1299 -1223 0
-1187 1135 1248 1249 1298 1299 1223 0
-1194 1223 0
-1174 -1122 -1223 0
-1174 -1129 -1223 0
-1174 -1136 -1223 0
-1174 -1237 -1223 0
-1174 -1243 -1223 0
-1174 -1249 -1223 0
-1174 -1238 -1223 0
-1174 -1244 -1223 0
-1174 -1250 -1223 0
-1174 -1288 -1223 0
-1174 -1293 -1223 0
-1174 -1298 -1223 0
-1174 -1289 -1223 0
-1174 -1294 -1223 0
-1174 -1299 -1223 0
-1174 -1290 -1223 0
-1174 -1295 -1223 0
-1174 -1300 -1223 0
-1174 1122 1129 1136 1237 1243 1249 1238 1244 1250 1288 1293 1298 1289 1294 1299 1290 1295 1300 1223 0
-1181 -1129 -1223 0
-1181 -1136 -1223 0
-1181 -1243 -1223 0
-1181 -1249 -1223 0
-1181 -1244 -1223 0
-1181 -1250 -1223 0
-1181 -1293 -1223 0
-1181 -1298 -1223 0
-1181 -1294 -1223 0
-1181 -1299 -1223 0
-1181 -1295 -1223 0
-1181 -1300 -1223 0
-1181 1129 1136 1243 1249 1244 1250 1293 1298 1294 1299 1295 1300 1223 0
-1188 -1136 -1223 0
-1188 -1249 -1223 0
-1188 -1250 -1223 0
-1188 -1298 -1223 0
-1188 -1299 -1223 0
-1188 -1300 -1223 0
-1188 1136 1249 1250 1298 1299 1300 1223 0
-1195 1223 0
-1175 -1123 -1223 0
-1175 -1130 -1223 0
-1175 -1137 -1223 0
-1175 -1238 -1223 0
-1175 -1244 -1223 0
-1175 -1250 -1223 0
-1175 -1239 -1223 0
-1175 -1245 -1223 0
-1175 -1251 -1223 0
-1175 -1289 -1223 0
-1175 -1294 -1223 0
-1175 -1299 -1223 0
-1175 -1290 -1223 0
-1175 -1295 -1223 0
-1175 -1300 -1223 0
-1175 -1291 -1223 0
-1175 -1296 -1223 0
-1175 -1301 -1223 0
-1175 1123 1130 1137 1238 1244 1250 1239 1245 1251 1289 1294 1299 1290 1295 1300 1291 1296 1301 1223 0
-1182 -1130 -1223 0
-1182 -1137 -1223 0
-1182 -1244 -1223 0
-1182 -1250 -1223 0
-1182 -1245 -1223 0
-1182 -1251 -1223 0
-1182 -1294 -1223 0
-1182 -1299 -1223 0
-1182 -1295 -1223 0
-1182 -1300 -1223 0
-1182 -1296 -1223 0
-1182 -1301 -1223 0
-1182 1130 1137 1244 1250 1245 1251 1294 1299 1295 1300 1296 1301 1223 0
-1189 -1137 -1223 0
-1189 -1250 -1223 0
-1189 -1251 -1223 0
-1189 -1299 -1223 0
-1189 -1300 -1223 0
-1189 -1301 -1223 0
-1189 1137 1250 1251 1299 1300 1301 1223 0
-1196 1223 0
-1176 -1124 -1223 0
-1176 -1131 -1223 0
-1176 -1138 -1223 0
-1176 -1239 -1223 0
-1176 -1245 -1223 0
-1176 -1251 -1223 0
-1176 -1240 -1223 0
-1176 -1246 -1223 0
-1176 -1252 -1223 0
-1176 -1290 -1223 0
-1176 -1295 -1223 0
-1176 -1300 -1223 0
-1176 -1291 -1223 0
-1176 -1296 -1223 0
-1176 -1301 -1223 0
-1176 1124 1131 1138 1239 1245 1251 1240 1246 1252 1290 1295 1300 1291 1296 1301 1223 0
-1183 -1131 -1223 0
-1183 -1138 -1223 0
-1183 -1245 -1223 0
-1183 -1251 -1223 0
-1183 -1246 -1223 0
-1183 -1252 -1223 0
-1183 -1295 -1223 0
-1183 -1300 -1223 0
-1183 -1296 -1223 0
-1183 -1301 -1223 0
-1183 1131 1138 1245 1251 1246 1252 1295 1300 1296 1301 1223 0
-1190 -1138 -1223 0
-1190 -1251 -1223 0
-1190 -1252 -1223 0
-1190 -1300 -1223 0
-1190 -1301 -1223 0
-1190 1138 1251 1252 1300 1301 1223 0
-1197 1223 0
-1177 -1125 -1223 0
-1177 -1132 -1223 0
-1177 -1139 -1223 0
-1177 -1240 -1223 0
-1177 -1246 -1223 0
-1177 -1252 -1223 0
-1177 -1291 -1223 0
-1177 -1296 -1223 0
-1177 -1301 -1223 0
-1177 1125 1132 1139 1240 1246 1252 1291 1296 1301 1223 0
-1184 -1132 -1223 0
-1184 -1139 -1223 0
-1184 -1246 -1223 0
-1184 -1252 -1223 0
-1184 -1296 -1223 0
-1184 -1301 -1223 0
-1184 1132 1139 1246 1252 1296 1301 1223 0
-1191 -1139 -1223 0
-1191 -1252 -1223 0
-1191 -1301 -1223 0
-1191 1139 1252 1301 1223 0
-1198 1223 0
-1230 -1120 -1277 0
-1230 -1127 -1277 0
-1230 -1134 -1277 0
-1230 -1121 -1277 0
-1230 -1128 -1277 0
-1230 -1135 -1277 0
-1230 -1179 -1277 0
-1230 -1186 -1277 0
-1230 -1193 -1277 0
-1230 -1180 -1277 0
-1230 -1187 -1277 0
-1230 -1194 -1277 0
-1230 -1288 -1277 0
-1230 -1293 -1277 0
-1230 -1298 -1277 0
-1230 -1289 -1277 0
-1230 -1294 -1277 0
-1230 -1299 -1277 0
-1230 1120 1127 1134 1121 1128 1135 1179 1186 1193 1180 1187 1194 1288 1293 1298 1289 1294 1299 1277 0
-1236 -1127 -1277 0
-1236 -1134 -1277 0
-1236 -1128 -1277 0
-1236 -1135 -1277 0
-1236 -1186 -1277 0
-1236 -1193 -1277 0
-1236 -1187 -1277 0
-1236 -1194 -1277 0
-1236 -1293 -1277 0
-1236 -1298 -1277 0
-1236 -1294 -1277 0
-1236 -1299 -1277 0
-1236 1127 1134 1128 1135 1186 1193 1187 1194 1293 1298 1294 1299 1277 0
-1242 -1134 -1277 0
-1242 -1135 -1277 0
-1242 -1193 -1277 0
-1242 -1194 -1277 0
-1242 -1298 -1277 0
-1242 -1299 -1277 0
-1242 1134 1135 1193 1194 1298 1299 1277 0
-1248 1277 0
-1231 -1121 -1277 0
-1231 -1128 -1277 0
-1231 -1135 -1277 0
-1231 -1122 -1277 0
-1231 -1129 -1277 0
-1231 -1136 -1277 0
-1231 -1180 -1277 0
-1231 -1187 -1277 0
-1231 -1194 -1277 0
-1231 -1181 -1277 0
-1231 -1188 -1277 0
-1231 -1195 -1277 0
-1231 -1288 -1277 0
-1231 -1293 -1277 0
-1231 -1298 -1277 0
-1231 -1289 -1277 0
-1231 -1294 -1277 0
-1231 -1299 -1277 0
-1231 -1290 -1277 0
-1231 -1295 -1277 0
-1231 -1300 -1277 0
-1231 1121 1128 1135 1122 1129 1136 1180 1187 1194 1181 1188 1195 1288 1293 1298 1289 1294 1299 1290 1295 1300 1277 0
-1237 -1128 -1277 0
-1237 -1135 -1277 0
-1237 -1129 -1277 0
-1237 -1136 -1277 0
-1237 -1187 -1277 0
-1237 -1194 -1277 0
-1237 -1188 -1277 0
-1237 -1195 -1277 0
-1237 -1293 -1277 0
-1237 -1298 -1277 0
-1237 -1294 -1277 0
-1237 -1299 -1277 0
-1237 -1295 -1277 0
-1237 -1300 -1277 0
-1237 1128 1135 1129 1136 1187 1194 1188 1195 1293 1298 1294 1299 1295 1300 1277 0
-1243 -1135 -1277 0
-1243 -1136 -1277 0
-1243 -1194 -1277 0
-1243 -1195 -1277 0
-1243 -1298 -1277 0
-1243 -1299 -1277 0
-1243 -1300 -1277 0
-1243 1135 1136 1194 1195 1298 1299 1300 1277 0
-1249 1277 0
-1232 -1122 -1277 0
-1232 -1129 -1277 0
-1232 -1136 -1277 0
-1232 -1123 -1277 0
-1232 -1130 -1277 0
-1232 -1137 -1277 0
-1232 -1181 -1277 0
-1232 -1188 -1277 0
-1232 -1195 -1277 0
-1232 -1182 -1277 0
-1232 -1189 -1277 0
-1232 -1196 -1277 0
-1232 -1288 -1277 0
-1232 -1293 -1277 0
-1232 -1298 -1277 0
-1232 -1289 -1277 0
-1232 -1294 -1277 0
-1232 -1299 -1277 0
-1232 -1290 -1277 0
-1232 -1295 -1277 0
-1232 -1300 -1277 0
-1232 -1291 -1277 0
-1232 -1296 -1277 0
-1232 -1301 -1277 0
-1232 1122 1129 1136 1123 1130 1137 1181 1188 1195 1182 1189 1196 1288 1293 1298 1289 1294 1299 1290 1295 1300 1291 1296 1301 1277 0
-1238 -1129 -1277 0
-1238 -1136 -1277 0
-1238 -1130 -1277 0
-1238 -1137 -1277 0
-1238 -1188 -1277 0
-1238 -1195 -1277 0
-1238 -1189 -1277 0
-1238 -1196 -1277 0
-1238 -1293 -1277 0
-1238 -1298 -1277 0
-1238 -1294 -1277 0
-1238 -1299 -1277 0
-1238 -1295 -1277 0
-1238 -1300 -1277 0
-1238 -1296 -1277 0
-1238 -1301 -1277 0
-1238 1129 1136 1130 1137 1188 1195 1189 1196 1293 1298 1294 1299 1295 1300 1296 1301 1277 0
-1244 -1136 -1277 0
-1244 -1137 -1277 0
-1244 -1195 -1277 0
-1244 -1196 -1277 0
-1244 -1298 -1277 0
-1244 -1299 -1277 0
-1244 -1300 -1277 0
-1244 -1301 -1277 0
-1244 1136 1137 1195 1196 1298 1299 1300 1301 1277 0
-1250 1277 0
-1233 -1123 -1277 0
-1233 -1130 -1277 0
-1233 -1137 -1277 0
-1233 -1124 -1277 0
-1233 -1131 -1277 0
-1233 -1138 -1277 0
-1233 -1182 -1277 0
-1233 -1189 -1277 0
-1233 -1196 -1277 0
-1233 -1183 -1277 0
-1233 -1190 -1277 0
-1233 -1197 -1277 0
-1233 -1289 -1277 0
-1233 -1294 -1277 0
-1233 -1299 -1277 0
-1233 -1290 -1277 0
-1233 -1295 -1277 0
-1233 -1300 -1277 0
-1233 -1291 -1277 0
-1233 -1296 -1277 0
-1233 -1301 -1277 0
-1233 1123 1130 1137 1124 1131 1138 1182 1189 1196 1183 1190 1197 1289 1294 1299 1290 1295 1300 1291 1296 1301 1277 0
-1239 -1130 -1277 0
-1239 -1137 -1277 0
-1239 -1131 -1277 0
-1239 -1138 -1277 0
-1239 -1189 -1277 0
-1239 -1196 -1277 0
-1239 -1190 -1277 0
-1239 -1197 -1277 0
-1239 -1294 -1277 0
-1239 -1299 -1277 0
-1239 -1295 -1277 0
-1239 -1300 -1277 0
-1239 -1296 -1277 0
-1239 -1301 -1277 0
-1239 1130 1137 1131 1138 1189 1196 1190 1197 1294 1299 1295 1300 1296 1301 1277 0
-1245 -1137 -1277 0
-1245 -1138 -1277 0
-1245 -1196 -1277 0
-1245 -1197 -1277 0
-1245 -1299 -1277 0
-1245 -1300 -1277 0
-1245 -1301 -1277 0
-1245 1137 1138 1196 1197 1299 1300 1301 1277 0
-1251 1277 0
-1234 -1124 -1277 0
-1234 -1131 -1277 0
-1234 -1138 -1277 0
-1234 -1125 -1277 0
-1234 -1132 -1277 0
-1234 -1139 -1277 0
-1234 -1183 -1277 0
-1234 -1190 -1277 0
-1234 -1197 -1277 0
-1234 -1184 -1277 0
-1234 -1191 -1277 0
-1234 -1198 -1277 0
-1234 -1290 -1277 0
-1234 -1295 -1277 0
-1234 -1300 -1277 0
-1234 -1291 -1277 0
-1234 -1296 -1277 0
-1234 -1301 -1277 0
-1234 1124 1131 1138 1125 1132 1139 1183 1190 1197 1184 1191 1198 1290 1295 1300 1291 1296 1301 1277 0
-1240 -1131 -1277 0
-1240 -1138 -1277 0
-1240 -1132 -1277 0
-1240 -1139 -1277 0
-1240 -1190 -1277 0
-1240 -1197 -1277 0
-1240 -1191 -1277 0
-1240 -1198 -1277 0
-1240 -1295 -1277 0
-1240 -1300 -1277 0
-1240 -1296 -1277 0
-1240 -1301 -1277 0
-1240 1131 1138 1132 1139 1190 1197 1191 1198 1295 1300 1296 1301 1277 0
-1246 -1138 -1277 0
-1246 -1139 -1277 0
-1246 -1197 -1277 0
-1246 -1198 -1277 0
-1246 -1300 -1277 0
-1246 -1301 -1277 0
-1246 1138 1139 1197 1198 1300 1301 1277 0
-1252 1277 0
-1283 -1120 -1326 0
-1283 -1127 -1326 0
-1283 -1134 -1326 0
-1283 -1121 -1326 0
-1283 -1128 -1326 0
-1283 -1135 -1326 0
-1283 -1122 -1326 0
-1283 -1129 -1326 0
-1283 -1136 -1326 0
-1283 -1179 -1326 0
-1283 -1186 -1326 0
-1283 -1193 -1326 0
-1283 -1180 -1326 0
-1283 -1187 -1326 0
-1283 -1194 -1326 0
-1283 -1181 -1326 0
-1283 -1188 -1326 0
-1283 -1195 -1326 0
-1283 -1236 -1326 0
-1283 -1242 -1326 0
-1283 -1248 -1326 0
-1283 -1237 -1326 0
-1283 -1243 -1326 0
-1283 -1249 -1326 0
-1283 -1238 -1326 0
-1283 -1244 -1326 0
-1283 -1250 -1326 0
-1283 1120 1127 1134 1121 1128 1135 1122 1129 1136 1179 1186 1193 1180 1187 1194 1181 1188 1195 1236 1242 1248 1237 1243 1249 1238 1244 1250 1326 0
-1288 -1127 -1326 0
-1288 -1134 -1326 0
-1288 -1128 -1326 0
-1288 -1135 -1326 0
-1288 -1129 -1326 0
-1288 -1136 -1326 0
-1288 -1186 -1326 0
-1288 -1193 -1326 0
-1288 -1187 -1326 0
-1288 -1194 -1326 0
-1288 -1188 -1326 0
-1288 -1195 -1326 0
-1288 -1242 -1326 0
-1288 -1248 -1326 0
-1288 -1243 -1326 0
-1288 -1249 -1326 0
-1288 -1244 -1326 0
-1288 -1250 -1326 0
-1288 1127 1134 1128 1135 1129 1136 1186 1193 1187 1194 1188 1195 1242 1248 1243 1249 1244 1250 1326 0
-1293 -1134 -1326 0
-1293 -1135 -1326 0
-1293 -1136 -1326 0
-1293 -1193 -1326 0
-1293 -1194 -1326 0
-1293 -1195 -1326 0
-1293 -1248 -1326 0
-1293 -1249 -1326 0
-1293 -1250 -1326 0
-1293 1134 1135 1136 1193 1194 1195 1248 1249 1250 1326 0
-1298 1326 0
-1284 -1121 -1326 0
-1284 -1128 -1326 0
-1284 -1135 -1326 0
-1284 -1122 -1326 0
-1284 -1129 -1326 0
-1284 -1136 -1326 0
-1284 -1123 -1326 0
-1284 -1130 -1326 0
-1284 -1137 -1326 0
-1284 -1180 -1326 0
-1284 -1187 -1326 0
-1284 -1194 -1326 0
-1284 -1181 -1326 0
-1284 -1188 -1326 0
-1284 -1195 -1326 0
-1284 -1182 -1326 0
-1284 -1189 -1326 0
-1284 -1196 -1326 0
-1284 -1236 -1326 0
-1284 -1242 -1326 0
-1284 -1248 -1326 0
-1284 -1237 -1326 0
-1284 -1243 -1326 0
-1284 -1249 -1326 0
-1284 -1238 -1326 0
-1284 -1244 -1326 0
-1284 -1250 -1326 0
-1284 -1239 -1326 0
-1284 -1245 -1326 0
-1284 -1251 -1326 0
-1284 1121 1128 1135 1122 1129 1136 1123 1130 1137 1180 1187 1194 1181 1188 1195 1182 1189 1196 1236 1242 1248 1237 1243 1249 1238 1244 1250 1239 1245 1251 1326 0
-1289 -1128 -1326 0
-1289 -1135 -1326 0
-1289 -1129 -1326 0
-1289 -1136 -1326 0
-1289 -1130 -1326 0
-1289 -1137 -1326 0
-1289 -1187 -1326 0
-1289 -1194 -1326 0
-1289 -1188 -1326 0
-1289 -1195 -1326 0
-1289 -1189 -1326 0
-1289 -1196 -1326 0
-1289 -1242 -1326 0
-1289 -1248 -1326 0
-1289 -1243 -1326 0
-1289 -1249 -1326 0
-1289 -1244 -1326 0
-1289 -1250 -1326 0
-1289 -1245 -1326 0
-1289 -1251 -1326 0
-1289 1128 1135 1129 1136 1130 1137 1187 1194 1188 1195 1189 1196 1242 1248 1243 1249 1244 1250 1245 1251 1326 0
-1294 -1135 -1326 0
-1294 -1136 -1326 0
-1294 -1137 -1326 0
-1294 -1194 -1326 0
-1294 -1195 -1326 0
-1294 -1196 -1326 0
-1294 -1248 -1326 0
-1294 -1249 -1326 0
-1294 -1250 -1326 0
-1294 -1251 -1326 0
-1294 1135 1136 1137 1194 1195 1196 1248 1249 1250 1251 1326 0
-1299 1326 0
-1285 -1122 -1326 0
-1285 -1129 -1326 0
-1285 -1136 -1326 0
-1285 -1123 -1326 0
-1285 -1130 -1326 0
-1285 -1137 -1326 0
-1285 -1124 -1326 0
-1285 -1131 -1326 0
-1285 -1138 -1326 0
-1285 -1181 -1326 0
-1285 -1188 -1326 0
-1285 -1195 -1326 0
-1285 -1182 -1326 0
-1285 -1189 -1326 0
-1285 -1196 -1326 0
-1285 -1183 -1326 0
-1285 -1190 -1326 0
-1285 -1197 -1326 0
-1285 -1237 -1326 0
-1285 -1243 -1326 0
-1285 -1249 -1326 0
-1285 -1238 -1326 0
-1285 -1244 -1326 0
-1285 -1250 -1326 0
-1285 -1239 -1326 0
-1285 -1245 -1326 0
-1285 -1251 -1326 0
-1285 -1240 -1326 0
-1285 -1246 -1326 0
-1285 -1252 -1326 0
-1285 1122 1129 1136 1123 1130 1137 1124 1131 1138 1181 1188 1195 1182 1189 1196 1183 1190 1197 1237 1243 1249 1238 1244 1250 1239 1245 1251 1240 1246 1252 1326 0
-1290 -1129 -1326 0
-1290 -1136 -1326 0
-1290 -1130 -1326 0
-1290 -1137 -1326 0
-1290 -1131 -1326 0
-1290 -1138 -1326 0
-1290 -1188 -1326 0
-1290 -1195 -1326 0
-1290 -1189 -1326 0
-1290 -1196 -1326 0
-1290 -1190 -1326 0
-1290 -1197 -1326 0
-1290 -1243 -1326 0
-1290 -1249 -1326 0
-1290 -1244 -1326 0
-1290 -1250 -1326 0
-1290 -1245 -1326 0
-1290 -1251 -1326 0
-1290 -1246 -1326 0
-1290 -1252 -1326 0
-1290 1129 1136 1130 1137 1131 1138 1188 1195 1189 1196 1190 1197 1243 1249 1244 1250 1245 1251 1246 1252 1326 0
-1295 -1136 -1326 0
-1295 -1137 -1326 0
-1295 -1138 -1326 0
-1295 -1195 -1326 0
-1295 -1196 -1326 0
-1295 -1197 -1326 0
-1295 -1249 -1326 0
-1295 -1250 -1326 0
-1295 -1251 -1326 0
-1295 -1252 -1326 0
-1295 1136 1137 1138 1195 1196 1197 1249 1250 1251 1252 1326 0
-1300 1326 0
-1286 -1123 -1326 0
-1286 -1130 -1326 0
-1286 -1137 -1326 0
-1286 -1124 -1326 0
-1286 -1131 -1326 0
-1286 -1138 -1326 0
-1286 -1125 -1326 0
-1286 -1132 -1326 0
-1286 -1139 -1326 0
-1286 -1182 -1326 0
-1286 -1189 -1326 0
-1286 -1196 -1326 0
-1286 -1183 -1326 0
-1286 -1190 -1326 0
-1286 -1197 -1326 0
-1286 -1184 -1326 0
-1286 -1191 -1326 0
-1286 -1198 -1326 0
-1286 -1238 -1326 0
-1286 -1244 -1326 0
-1286 -1250 -1326 0
-1286 -1239 -1326 0
-1286 -1245 -1326 0
-1286 -1251 -1326 0
-1286 -1240 -1326 0
-1286 -1246 -1326 0
-1286 -1252 -1326 0
-1286 1123 1130 1137 1124 1131 1138 1125 1132 1139 1182 1189 1196 1183 1190 1197 1184 1191 1198 1238 1244 1250 1239 1245 1251 1240 1246 1252 1326 0
-1291 -1130 -1326 0
-1291 -1137 -1326 0
-1291 -1131 -1326 0
-1291 -1138 -1326 0
-1291 -1132 -1326 0
-1291 -1139 -1326 0
-1291 -1189 -1326 0
-1291 -1196 -1326 0
-1291 -1190 -1326 0
-1291 -1197 -1326 0
-1291 -1191 -1326 0
-1291 -1198 -1326 0
-1291 -1244 -1326 0
-1291 -1250 -1326 0
-1291 -1245 -1326 0
-1291 -1251 -1326 0
-1291 -1246 -1326 0
-1291 -1252 -1326 0
-1291 1130 1137 1131 1138 1132 1139 1189 1196 1190 1197 1191 1198 1244 1250 1245 1251 1246 1252 1326 0
-1296 -1137 -1326 0
-1296 -1138 -1326 0
-1296 -1139 -1326 0
-1296 -1196 -1326 0
-1296 -1197 -1326 0
-1296 -1198 -1326 0
-1296 -1250 -1326 0
-1296 -1251 -1326 0
-1296 -1252 -1326 0
-1296 1137 1138 1139 1196 1197 1198 1250 1251 1252 1326 0
-1301 1326 0
1 0
14 0
61 0
73 0
119 0
124 0
176 0
177 0
1110 0
1126 0
1170 0
1185 0
1228 0
1235 0
1281 0
1282 0
-1327 59 0
-1327 -8 0
-1327 -67 0
-1327 -125 0
-1327 -178 0
-1327 222 0
-1327 228 0
-1328 59 0
-1328 -9 0
-1328 -68 0
-1328 -125 0
-1328 -126 0
-1328 -178 0
-1328 -179 0
-1328 223 0
-1328 228 0
-1329 59 0
-1329 -10 0
-1329 -69 0
-1329 -126 0
-1329 -127 0
-1329 -178 0
-1329 -179 0
-1329 -180 0
-1329 224 0
-1329 228 0
-1330 59 0
-1330 -11 0
-1330 -70 0
-1330 -127 0
-1330 -128 0
-1330 -179 0
-1330 -180 0
-1330 -181 0
-1330 225 0
-1330 228 0
-1331 59 0
-1331 -12 0
-1331 -71 0
-1331 -128 0
-1331 -129 0
-1331 -180 0
-1331 -181 0
-1331 226 0
-1331 228 0
-1332 59 0
-1332 -13 0
-1332 -72 0
-1332 -129 0
-1332 -181 0
-1332 227 0
-1332 228 0
-1333 59 0
-1333 60 0
-1333 -66 235 0
-1333 -66 -131 0
-1333 -66 -183 0
-1333 -15 0
-1333 -73 242 0
-1333 -73 -137 0
-1333 -73 -188 0
-1333 -22 0
-1333 -80 249 0
-1333 -80 -143 0
-1333 -80 -193 0
-1333 -29 0
-1333 222 0
-1334 59 0
-1334 61 0
-1334 -66 235 0
-1334 -66 -131 0
-1334 -66 -132 0
-1334 -66 -183 0
-1334 -66 -184 0
-1334 -16 0
-1334 -73 242 0
-1334 -73 -137 0
-1334 -73 -138 0
-1334 -73 -188 0
-1334 -73 -189 0
-1334 -23 0
-1334 -80 249 0
-1334 -80 -143 0
-1334 -80 -144 0
-1334 -80 -193 0
-1334 -80 -194 0
-1334 -30 0
-1334 223 0
-1335 59 0
-1335 62 0
-1335 -66 235 0
-1335 -66 -132 0
-1335 -66 -133 0
-1335 -66 -183 0
-1335 -66 -184 0
-1335 -66 -185 0
-1335 -17 0
-1335 -73 242 0
-1335 -73 -138 0
-1335 -73 -139 0
-1335 -73 -188 0
-1335 -73 -189 0
-1335 -73 -190 0
-1335 -24 0
-1335 -80 249 0
-1335 -80 -144 0
-1335 -80 -145 0
-1335 -80 -193 0
-1335 -80 -194 0
-1335 -80 -195 0
-1335 -31 0
-1335 224 0
-1336 59 0
-1336 63 0
-1336 -66 235 0
-1336 -66 -133 0
-1336 -66 -134 0
-1336 -66 -184 0
-1336 -66 -185 0
-1336 -66 -186 0
-1336 -18 0
-1336 -73 242 0
-1336 -73 -139 0
-1336 -73 -140 0
-1336 -73 -189 0
-1336 -73 -190 0
-1336 -73 -191 0
-1336 -25 0
-1336 -80 249 0
-1336 -80 -145 0
-1336 -80 -146 0
-1336 -80 -194 0
-1336 -80 -195 0
-1336 -80 -196 0
-1336 -32 0
-1336 225 0
-1337 59 0
-1337 64 0
-1337 -66 235 0
-1337 -66 -134 0
-1337 -66 -135 0
-1337 -66 -185 0
-1337 -66 -186 0
-1337 -19 0
-1337 -73 242 0
-1337 -73 -140 0
-1337 -73 -141 0
-1337 -73 -190 0
-1337 -73 -191 0
-1337 -26 0
-1337 -80 249 0
-1337 -80 -146 0
-1337 -80 -147 0
-1337 -80 -195 0
-1337 -80 -196 0
-1337 -33 0
-1337 226 0
-1338 59 0
-1338 65 0
-1338 -66 235 0
-1338 -66 -135 0
-1338 -66 -186 0
-1338 -20 0
-1338 -73 242 0
-1338 -73 -141 0
-1338 -73 -191 0
-1338 -27 0
-1338 -80 249 0
-1338 -80 -147 0
-1338 -80 -196 0
-1338 -34 0
-1338 227 0
-1339 59 0
-1339 119 0
-1339 -124 235 0
-1339 -124 -74 0
-1339 -124 -183 0
-1339 -15 0
-1339 -130 242 0
-1339 -130 -81 0
-1339 -130 -188 0
-1339 -22 0
-1339 -136 249 0
-1339 -136 -88 0
-1339 -136 -193 0
-1339 -29 0
-1339 222 0
-1340 59 0
-1340 119 120 0
-1340 -124 235 0
-1340 -124 -75 0
-1340 -124 -183 0
-1340 -124 -184 0
-1340 -16 0
-1340 -130 242 0
-1340 -130 -82 0
-1340 -130 -188 0
-1340 -130 -189 0
-1340 -23 0
-1340 -136 249 0
-1340 -136 -89 0
-1340 -136 -193 0
-1340 -136 -194 0
-1340 -30 0
-1340 223 0
-1341 59 0
-1341 120 121 0
-1341 -124 235 0
-1341 -124 -76 0
-1341 -124 -183 0
-1341 -124 -184 0
-1341 -124 -185 0
-1341 -17 0
-1341 -130 242 0
-1341 -130 -83 0
-1341 -130 -188 0
-1341 -130 -189 0
-1341 -130 -190 0
-1341 -24 0
-1341 -136 249 0
-1341 -136 -90 0
-1341 -136 -193 0
-1341 -136 -194 0
-1341 -136 -195 0
-1341 -31 0
-1341 224 0
-1342 59 0
-1342 121 122 0
-1342 -124 235 0
-1342 -124 -77 0
-1342 -124 -184 0
-1342 -124 -185 0
-1342 -124 -186 0
-1342 -18 0
-1342 -130 242 0
-1342 -130 -84 0
-1342 -130 -189 0
-1342 -130 -190 0
-1342 -130 -191 0
-1342 -25 0
-1342 -136 249 0
-1342 -136 -91 0
-1342 -136 -194 0
-1342 -136 -195 0
-1342 -136 -196 0
-1342 -32 0
-1342 225 0
-1343 59 0
-1343 122 123 0
-1343 -124 235 0
-1343 -124 -78 0
-1343 -124 -185 0
-1343 -124 -186 0
-1343 -19 0
-1343 -130 242 0
-1343 -130 -85 0
-1343 -130 -190 0
-1343 -130 -191 0
-1343 -26 0
-1343 -136 249 0
-1343 -136 -92 0
-1343 -136 -195 0
-1343 -136 -196 0
-1343 -33 0
-1343 226 0
-1344 59 0
-1344 123 0
-1344 -124 235 0
-1344 -124 -79 0
-1344 -124 -186 0
-1344 -20 0
-1344 -130 242 0
-1344 -130 -86 0
-1344 -130 -191 0
-1344 -27 0
-1344 -136 249 0
-1344 -136 -93 0
-1344 -136 -196 0
-1344 -34 0
-1344 227 0
-1345 59 0
-1345 173 0
-1345 -177 235 0
-1345 -177 -74 0
-1345 -177 -131 0
-1345 -15 0
-1345 -182 242 0
-1345 -182 -81 0
-1345 -182 -137 0
-1345 -22 0
-1345 -187 249 0
-1345 -187 -88 0
-1345 -187 -143 0
-1345 -29 0
-1345 222 0
-1346 59 0
-1346 173 174 0
-1346 -177 235 0
-1346 -177 -75 0
-1346 -177 -131 0
-1346 -177 -132 0
-1346 -16 0
-1346 -182 242 0
-1346 -182 -82 0
-1346 -182 -137 0
-1346 -182 -138 0
-1346 -23 0
-1346 -187 249 0
-1346 -187 -89 0
-1346 -187 -143 0
-1346 -187 -144 0
-1346 -30 0
-1346 223 0
-1347 59 0
-1347 173 174 175 0
-1347 -177 235 0
-1347 -177 -76 0
-1347 -177 -132 0
-1347 -177 -133 0
-1347 -17 0
-1347 -182 242 0
-1347 -182 -83 0
-1347 -182 -138 0
-1347 -182 -139 0
-1347 -24 0
-1347 -187 249 0
-1347 -187 -90 0
-1347 -187 -144 0
-1347 -187 -145 0
-1347 -31 0
-1347 224 0
-1348 59 0
-1348 174 175 176 0
-1348 -177 235 0
-1348 -177 -77 0
-1348 -177 -133 0
-1348 -177 -134 0
-1348 -18 0
-1348 -182 242 0
-1348 -182 -84 0
-1348 -182 -139 0
-1348 -182 -140 0
-1348 -25 0
-1348 -187 249 0
-1348 -187 -91 0
-1348 -187 -145 0
-1348 -187 -146 0
-1348 -32 0
-1348 225 0
-1349 59 0
-1349 175 176 0
-1349 -177 235 0
-1349 -177 -78 0
-1349 -177 -134 0
-1349 -177 -135 0
-1349 -19 0
-1349 -182 242 0
-1349 -182 -85 0
-1349 -182 -140 0
-1349 -182 -141 0
-1349 -26 0
-1349 -187 249 0
-1349 -187 -92 0
-1349 -187 -146 0
-1349 -187 -147 0
-1349 -33 0
-1349 226 0
-1350 59 0
-1350 176 0
-1350 -177 235 0
-1350 -177 -79 0
-1350 -177 -135 0
-1350 -20 0
-1350 -182 242 0
-1350 -182 -86 0
-1350 -182 -141 0
-1350 -27 0
-1350 -187 249 0
-1350 -187 -93 0
-1350 -187 -147 0
-1350 -34 0
-1350 227 0
-1351 118 0
-1351 -67 0
-1351 -8 0
-1351 -125 0
-1351 -178 0
-1351 281 0
-1351 287 0
-1352 118 0
-1352 -68 0
-1352 -9 0
-1352 -125 0
-1352 -126 0
-1352 -178 0
-1352 -179 0
-1352 282 0
-1352 287 0
-1353 118 0
-1353 -69 0
-1353 -10 0
-1353 -126 0
-1353 -127 0
-1353 -178 0
-1353 -179 0
-1353 -180 0
-1353 283 0
-1353 287 0
-1354 118 0
-1354 -70 0
-1354 -11 0
-1354 -127 0
-1354 -128 0
-1354 -179 0
-1354 -180 0
-1354 -181 0
-1354 284 0
-1354 287 0
-1355 118 0
-1355 -71 0
-1355 -12 0
-1355 -128 0
-1355 -129 0
-1355 -180 0
-1355 -181 0
-1355 285 0
-1355 287 0
-1356 118 0
-1356 -72 0
-1356 -13 0
-1356 -129 0
-1356 -181 0
-1356 286 0
-1356 287 0
-1357 118 0
-1357 1 0
-1357 -7 294 0
-1357 -7 -131 0
-1357 -7 -183 0
-1357 -74 0
-1357 -14 301 0
-1357 -14 -137 0
-1357 -14 -188 0
-1357 -81 0
-1357 -21 308 0
-1357 -21 -143 0
-1357 -21 -193 0
-1357 -88 0
-1357 281 0
-1358 118 0
-1358 2 0
-1358 -7 294 0
-1358 -7 -131 0
-1358 -7 -132 0
-1358 -7 -183 0
-1358 -7 -184 0
-1358 -75 0
-1358 -14 301 0
-1358 -14 -137 0
-1358 -14 -138 0
-1358 -14 -188 0
-1358 -14 -189 0
-1358 -82 0
-1358 -21 308 0
-1358 -21 -143 0
-1358 -21 -144 0
-1358 -21 -193 0
-1358 -21 -194 0
-1358 -89 0
-1358 282 0
-1359 118 0
-1359 3 0
-1359 -7 294 0
-1359 -7 -132 0
-1359 -7 -133 0
-1359 -7 -183 0
-1359 -7 -184 0
-1359 -7 -185 0
-1359 -76 0
-1359 -14 301 0
-1359 -14 -138 0
-1359 -14 -139 0
-1359 -14 -188 0
-1359 -14 -189 0
-1359 -14 -190 0
-1359 -83 0
-1359 -21 308 0
-1359 -21 -144 0
-1359 -21 -145 0
-1359 -21 -193 0
-1359 -21 -194 0
-1359 -21 -195 0
-1359 -90 0
-1359 283 0
-1360 118 0
-1360 4 0
-1360 -7 294 0
-1360 -7 -133 0
-1360 -7 -134 0
-1360 -7 -184 0
-1360 -7 -185 0
-1360 -7 -186 0
-1360 -77 0
-1360 -14 301 0
-1360 -14 -139 0
-1360 -14 -140 0
-1360 -14 -189 0
-1360 -14 -190 0
-1360 -14 -191 0
-1360 -84 0
-1360 -21 308 0
-1360 -21 -145 0
-1360 -21 -146 0
-1360 -21 -194 0
-1360 -21 -195 0
-1360 -21 -196 0
-1360 -91 0
-1360 284 0
-1361 118 0
-1361 5 0
-1361 -7 294 0
-1361 -7 -134 0
-1361 -7 -135 0
-1361 -7 -185 0
-1361 -7 -186 0
-1361 -78 0
-1361 -14 301 0
-1361 -14 -140 0
-1361 -14 -141 0
-1361 -14 -190 0
-1361 -14 -191 0
-1361 -85 0
-1361 -21 308 0
-1361 -21 -146 0
-1361 -21 -147 0
-1361 -21 -195 0
-1361 -21 -196 0
-1361 -92 0
-1361 285 0
-1362 118 0
-1362 6 0
-1362 -7 294 0
-1362 -7 -135 0
-1362 -7 -186 0
-1362 -79 0
-1362 -14 301 0
-1362 -14 -141 0
-1362 -14 -191 0
-1362 -86 0
-1362 -21 308 0
-1362 -21 -147 0
-1362 -21 -196 0
-1362 -93 0
-1362 286 0
-1363 118 0
-1363 119 0
-1363 -124 294 0
-1363 -124 -15 0
-1363 -124 -183 0
-1363 -74 0
-1363 -130 301 0
-1363 -130 -22 0
-1363 -130 -188 0
-1363 -81 0
-1363 -136 308 0
-1363 -136 -29 0
-1363 -136 -193 0
-1363 -88 0
-1363 281 0
-1364 118 0
-1364 119 120 0
-1364 -124 294 0
-1364 -124 -16 0
-1364 -124 -183 0
-1364 -124 -184 0
-1364 -75 0
-1364 -130 301 0
-1364 -130 -23 0
-1364 -130 -188 0
-1364 -130 -189 0
-1364 -82 0
-1364 -136 308 0
-1364 -136 -30 0
-1364 -136 -193 0
-1364 -136 -194 0
-1364 -89 0
-1364 282 0
-1365 118 0
-1365 120 121 0
-1365 -124 294 0
-1365 -124 -17 0
-1365 -124 -183 0
-1365 -124 -184 0
-1365 -124 -185 0
-1365 -76 0
-1365 -130 301 0
-1365 -130 -24 0
-1365 -130 -188 0
-1365 -130 -189 0
-1365 -130 -190 0
-1365 -83 0
-1365 -136 308 0
-1365 -136 -31 0
-1365 -136 -193 0
-1365 -136 -194 0
-1365 -136 -195 0
-1365 -90 0
-1365 283 0
-1366 118 0
-1366 121 122 0
-1366 -124 294 0
-1366 -124 -18 0
-1366 -124 -184 0
-1366 -124 -185 0
-1366 -124 -186 0
-1366 -77 0
-1366 -130 301 0
-1366 -130 -25 0
-1366 -130 -189 0
-1366 -130 -190 0
-1366 -130 -191 0
-1366 -84 0
-1366 -136 308 0
-1366 -136 -32 0
-1366 -136 -194 0
-1366 -136 -195 0
-1366 -136 -196 0
-1366 -91 0
-1366 284 0
-1367 118 0
-1367 122 123 0
-1367 -124 294 0
-1367 -124 -19 0
-1367 -124 -185 0
-1367 -124 -186 0
-1367 -78 0
-1367 -130 301 0
-1367 -130 -26 0
-1367 -130 -190 0
-1367 -130 -191 0
-1367 -85 0
-1367 -136 308 0
-1367 -136 -33 0
-1367 -136 -195 0
-1367 -136 -196 0
-1367 -92 0
-1367 285 0
-1368 118 0
-1368 123 0
-1368 -124 294 0
-1368 -124 -20 0
-1368 -124 -186 0
-1368 -79 0
-1368 -130 301 0
-1368 -130 -27 0
-1368 -130 -191 0
-1368 -86 0
-1368 -136 308 0
-1368 -136 -34 0
-1368 -136 -196 0
-1368 -93 0
-1368 286 0
-1369 118 0
-1369 173 0
-1369 -177 294 0
-1369 -177 -15 0
-1369 -177 -131 0
-1369 -74 0
-1369 -182 301 0
-1369 -182 -22 0
-1369 -182 -137 0
-1369 -81 0
-1369 -187 308 0
-1369 -187 -29 0
-1369 -187 -143 0
-1369 -88 0
-1369 281 0
-1370 118 0
-1370 173 174 0
-1370 -177 294 0
-1370 -177 -16 0
-1370 -177 -131 0
-1370 -177 -132 0
-1370 -75 0
-1370 -182 301 0
-1370 -182 -23 0
-1370 -182 -137 0
-1370 -182 -138 0
-1370 -82 0
-1370 -187 308 0
-1370 -187 -30 0
-1370 -187 -143 0
-1370 -187 -144 0
-1370 -89 0
-1370 282 0
-1371 118 0
-1371 173 174 175 0
-1371 -177 294 0
-1371 -177 -17 0
-1371 -177 -132 0
-1371 -177 -133 0
-1371 -76 0
-1371 -182 301 0
-1371 -182 -24 0
-1371 -182 -138 0
-1371 -182 -139 0
-1371 -83 0
-1371 -187 308 0
-1371 -187 -31 0
-1371 -187 -144 0
-1371 -187 -145 0
-1371 -90 0
-1371 283 0
-1372 118 0
-1372 174 175 176 0
-1372 -177 294 0
-1372 -177 -18 0
-1372 -177 -133 0
-1372 -177 -134 0
-1372 -77 0
-1372 -182 301 0
-1372 -182 -25 0
-1372 -182 -139 0
-1372 -182 -140 0
-1372 -84 0
-1372 -187 308 0
-1372 -187 -32 0
-1372 -187 -145 0
-1372 -187 -146 0
-1372 -91 0
-1372 284 0
-1373 118 0
-1373 175 176 0
-1373 -177 294 0
-1373 -177 -19 0
-1373 -177 -134 0
-1373 -177 -135 0
-1373 -78 0
-1373 -182 301 0
-1373 -182 -26 0
-1373 -182 -140 0
-1373 -182 -141 0
-1373 -85 0
-1373 -187 308 0
-1373 -187 -33 0
-1373 -187 -146 0
-1373 -187 -147 0
-1373 -92 0
-1373 285 0
-1374 118 0
-1374 176 0
-1374 -177 294 0
-1374 -177 -20 0
-1374 -177 -135 0
-1374 -79 0
-1374 -182 301 0
-1374 -182 -27 0
-1374 -182 -141 0
-1374 -86 0
-1374 -187 308 0
-1374 -187 -34 0
-1374 -187 -147 0
-1374 -93 0
-1374 286 0
-1375 172 0
-1375 -125 0
-1375 -8 0
-1375 -9 0
-1375 -67 0
-1375 -68 0
-1375 -178 0
-1375 -179 0
-1375 340 0
-1375 345 0
-1376 172 0
-1376 -126 0
-1376 -9 0
-1376 -10 0
-1376 -68 0
-1376 -69 0
-1376 -178 0
-1376 -179 0
-1376 -180 0
-1376 341 0
-1376 345 0
-1377 172 0
-1377 -127 0
-1377 -10 0
-1377 -11 0
-1377 -69 0
-1377 -70 0
-1377 -178 0
-1377 -179 0
-1377 -180 0
-1377 -181 0
-1377 342 0
-1377 345 0
-1378 172 0
-1378 -128 0
-1378 -11 0
-1378 -12 0
-1378 -70 0
-1378 -71 0
-1378 -179 0
-1378 -180 0
-1378 -181 0
-1378 343 0
-1378 345 0
-1379 172 0
-1379 -129 0
-1379 -12 0
-1379 -13 0
-1379 -71 0
-1379 -72 0
-1379 -180 0
-1379 -181 0
-1379 344 0
-1379 345 0
-1380 172 0
-1380 1 2 0
-1380 -7 351 0
-1380 -7 -74 0
-1380 -7 -75 0
-1380 -7 -183 0
-1380 -7 -184 0
-1380 -131 0
-1380 -14 357 0
-1380 -14 -81 0
-1380 -14 -82 0
-1380 -14 -188 0
-1380 -14 -189 0
-1380 -137 0
-1380 -21 363 0
-1380 -21 -88 0
-1380 -21 -89 0
-1380 -21 -193 0
-1380 -21 -194 0
-1380 -143 0
-1380 340 0
-1381 172 0
-1381 2 3 0
-1381 -7 351 0
-1381 -7 -75 0
-1381 -7 -76 0
-1381 -7 -183 0
-1381 -7 -184 0
-1381 -7 -185 0
-1381 -132 0
-1381 -14 357 0
-1381 -14 -82 0
-1381 -14 -83 0
-1381 -14 -188 0
-1381 -14 -189 0
-1381 -14 -190 0
-1381 -138 0
-1381 -21 363 0
-1381 -21 -89 0
-1381 -21 -90 0
-1381 -21 -193 0
-1381 -21 -194 0
-1381 -21 -195 0
-1381 -144 0
-1381 341 0
-1382 172 0
-1382 3 4 0
-1382 -7 351 0
-1382 -7 -76 0
-1382 -7 -77 0
-1382 -7 -183 0
-1382 -7 -184 0
-1382 -7 -185 0
-1382 -7 -186 0
-1382 -133 0
-1382 -14 357 0
-1382 -14 -83 0
-1382 -14 -84 0
-1382 -14 -188 0
-1382 -14 -189 0
-1382 -14 -190 0
-1382 -14 -191 0
-1382 -139 0
-1382 -21 363 0
-1382 -21 -90 0
-1382 -21 -91 0
-1382 -21 -193 0
-1382 -21 -194 0
-1382 -21 -195 0
-1382 -21 -196 0
-1382 -145 0
-1382 342 0
-1383 172 0
-1383 4 5 0
-1383 -7 351 0
-1383 -7 -77 0
-1383 -7 -78 0
-1383 -7 -184 0
-1383 -7 -185 0
-1383 -7 -186 0
-1383 -134 0
-1383 -14 357 0
-1383 -14 -84 0
-1383 -14 -85 0
-1383 -14 -189 0
-1383 -14 -190 0
-1383 -14 -191 0
-1383 -140 0
-1383 -21 363 0
-1383 -21 -91 0
-1383 -21 -92 0
-1383 -21 -194 0
-1383 -21 -195 0
-1383 -21 -196 0
-1383 -146 0
-1383 343 0
-1384 172 0
-1384 5 6 0
-1384 -7 351 0
-1384 -7 -78 0
-1384 -7 -79 0
-1384 -7 -185 0
-1384 -7 -186 0
-1384 -135 0
-1384 -14 357 0
-1384 -14 -85 0
-1384 -14 -86 0
-1384 -14 -190 0
-1384 -14 -191 0
-1384 -141 0
-1384 -21 363 0
-1384 -21 -92 0
-1384 -21 -93 0
-1384 -21 -195 0
-1384 -21 -196 0
-1384 -147 0
-1384 344 0
-1385 172 0
-1385 60 61 0
-1385 -66 351 0
-1385 -66 -15 0
-1385 -66 -16 0
-1385 -66 -183 0
-1385 -66 -184 0
-1385 -131 0
-1385 -73 357 0
-1385 -73 -22 0
-1385 -73 -23 0
-1385 -73 -188 0
-1385 -73 -189 0
-1385 -137 0
-1385 -80 363 0
-1385 -80 -29 0
-1385 -80 -30 0
-1385 -80 -193 0
-1385 -80 -194 0
-1385 -143 0
-1385 340 0
-1386 172 0
-1386 61 62 0
-1386 -66 351 0
-1386 -66 -16 0
-1386 -66 -17 0
-1386 -66 -183 0
-1386 -66 -184 0
-1386 -66 -185 0
-1386 -132 0
-1386 -73 357 0
-1386 -73 -23 0
-1386 -73 -24 0
-1386 -73 -188 0
-1386 -73 -189 0
-1386 -73 -190 0
-1386 -138 0
-1386 -80 363 0
-1386 -80 -30 0
-1386 -80 -31 0
-1386 -80 -193 0
-1386 -80 -194 0
-1386 -80 -195 0
-1386 -144 0
-1386 341 0
-1387 172 0
-1387 62 63 0
-1387 -66 351 0
-1387 -66 -17 0
-1387 -66 -18 0
-1387 -66 -183 0
-1387 -66 -184 0
-1387 -66 -185 0
-1387 -66 -186 0
-1387 -133 0
-1387 -73 357 0
-1387 -73 -24 0
-1387 -73 -25 0
-1387 -73 -188 0
-1387 -73 -189 0
-1387 -73 -190 0
-1387 -73 -191 0
-1387 -139 0
-1387 -80 363 0
-1387 -80 -31 0
-1387 -80 -32 0
-1387 -80 -193 0
-1387 -80 -194 0
-1387 -80 -195 0
-1387 -80 -196 0
-1387 -145 0
-1387 342 0
-1388 172 0
-1388 63 64 0
-1388 -66 351 0
-1388 -66 -18 0
-1388 -66 -19 0
-1388 -66 -184 0
-1388 -66 -185 0
-1388 -66 -186 0
-1388 -134 0
-1388 -73 357 0
-1388 -73 -25 0
-1388 -73 -26 0
-1388 -73 -189 0
-1388 -73 -190 0
-1388 -73 -191 0
-1388 -140 0
-1388 -80 363 0
-1388 -80 -32 0
-1388 -80 -33 0
-1388 -80 -194 0
-1388 -80 -195 0
-1388 -80 -196 0
-1388 -146 0
-1388 343 0
-1389 172 0
-1389 64 65 0
-1389 -66 351 0
-1389 -66 -19 0
-1389 -66 -20 0
-1389 -66 -185 0
-1389 -66 -186 0
-1389 -135 0
-1389 -73 357 0
-1389 -73 -26 0
-1389 -73 -27 0
-1389 -73 -190 0
-1389 -73 -191 0
-1389 -141 0
-1389 -80 363 0
-1389 -80 -33 0
-1389 -80 -34 0
-1389 -80 -195 0
-1389 -80 -196 0
-1389 -147 0
-1389 344 0
-1390 172 0
-1390 173 174 0
-1390 -177 351 0
-1390 -177 -15 0
-1390 -177 -16 0
-1390 -177 -74 0
-1390 -177 -75 0
-1390 -131 0
-1390 -182 357 0
-1390 -182 -22 0
-1390 -182 -23 0
-1390 -182 -81 0
-1390 -182 -82 0
-1390 -137 0
-1390 -187 363 0
-1390 -187 -29 0
-1390 -187 -30 0
-1390 -187 -88 0
-1390 -187 -89 0
-1390 -143 0
-1390 340 0
-1391 172 0
-1391 173 174 175 0
-1391 -177 351 0
-1391 -177 -16 0
-1391 -177 -17 0
-1391 -177 -75 0
-1391 -177 -76 0
-1391 -132 0
-1391 -182 357 0
-1391 -182 -23 0
-1391 -182 -24 0
-1391 -182 -82 0
-1391 -182 -83 0
-1391 -138 0
-1391 -187 363 0
-1391 -187 -30 0
-1391 -187 -31 0
-1391 -187 -89 0
-1391 -187 -90 0
-1391 -144 0
-1391 341 0
-1392 172 0
-1392 173 174 175 176 0
-1392 -177 351 0
-1392 -177 -17 0
-1392 -177 -18 0
-1392 -177 -76 0
-1392 -177 -77 0
-1392 -133 0
-1392 -182 357 0
-1392 -182 -24 0
-1392 -182 -25 0
-1392 -182 -83 0
-1392 -182 -84 0
-1392 -139 0
-1392 -187 363 0
-1392 -187 -31 0
-1392 -187 -32 0
-1392 -187 -90 0
-1392 -187 -91 0
-1392 -145 0
-1392 342 0
-1393 172 0
-1393 174 175 176 0
-1393 -177 351 0
-1393 -177 -18 0
-1393 -177 -19 0
-1393 -177 -77 0
-1393 -177 -78 0
-1393 -134 0
-1393 -182 357 0
-1393 -182 -25 0
-1393 -182 -26 0
-1393 -182 -84 0
-1393 -182 -85 0
-1393 -140 0
-1393 -187 363 0
-1393 -187 -32 0
-1393 -187 -33 0
-1393 -187 -91 0
-1393 -187 -92 0
-1393 -146 0
-1393 343 0
-1394 172 0
-1394 175 176 0
-1394 -177 351 0
-1394 -177 -19 0
-1394 -177 -20 0
-1394 -177 -78 0
-1394 -177 -79 0
-1394 -135 0
-1394 -182 357 0
-1394 -182 -26 0
-1394 -182 -27 0
-1394 -182 -85 0
-1394 -182 -86 0
-1394 -141 0
-1394 -187 363 0
-1394 -187 -33 0
-1394 -187 -34 0
-1394 -187 -92 0
-1394 -187 -93 0
-1394 -147 0
-1394 344 0
-1395 221 0
-1395 -178 0
-1395 -8 0
-1395 -9 0
-1395 -10 0
-1395 -67 0
-1395 -68 0
-1395 -69 0
-1395 -125 0
-1395 -126 0
-1395 -127 0
-1395 394 0
-1395 398 0
-1396 221 0
-1396 -179 0
-1396 -9 0
-1396 -10 0
-1396 -11 0
-1396 -68 0
-1396 -69 0
-1396 -70 0
-1396 -125 0
-1396 -126 0
-1396 -127 0
-1396 -128 0
-1396 395 0
-1396 398 0
-1397 221 0
-1397 -180 0
-1397 -10 0
-1397 -11 0
-1397 -12 0
-1397 -69 0
-1397 -70 0
-1397 -71 0
-1397 -126 0
-1397 -127 0
-1397 -128 0
-1397 -129 0
-1397 396 0
-1397 398 0
-1398 221 0
-1398 -181 0
-1398 -11 0
-1398 -12 0
-1398 -13 0
-1398 -70 0
-1398 -71 0
-1398 -72 0
-1398 -127 0
-1398 -128 0
-1398 -129 0
-1398 397 0
-1398 398 0
-1399 221 0
-1399 1 2 3 0
-1399 -7 403 0
-1399 -7 -74 0
-1399 -7 -75 0
-1399 -7 -76 0
-1399 -7 -131 0
-1399 -7 -132 0
-1399 -7 -133 0
-1399 -183 0
-1399 -14 408 0
-1399 -14 -81 0
-1399 -14 -82 0
-1399 -14 -83 0
-1399 -14 -137 0
-1399 -14 -138 0
-1399 -14 -139 0
-1399 -188 0
-1399 -21 413 0
-1399 -21 -88 0
-1399 -21 -89 0
-1399 -21 -90 0
-1399 -21 -143 0
-1399 -21 -144 0
-1399 -21 -145 0
-1399 -193 0
-1399 394 0
-1400 221 0
-1400 2 3 4 0
-1400 -7 403 0
-1400 -7 -75 0
-1400 -7 -76 0
-1400 -7 -77 0
-1400 -7 -131 0
-1400 -7 -132 0
-1400 -7 -133 0
-1400 -7 -134 0
-1400 -184 0
-1400 -14 408 0
-1400 -14 -82 0
-1400 -14 -83 0
-1400 -14 -84 0
-1400 -14 -137 0
-1400 -14 -138 0
-1400 -14 -139 0
-1400 -14 -140 0
-1400 -189 0
-1400 -21 413 0
-1400 -21 -89 0
-1400 -21 -90 0
-1400 -21 -91 0
-1400 -21 -143 0
-1400 -21 -144 0
-1400 -21 -145 0
-1400 -21 -146 0
-1400 -194 0
-1400 395 0
-1401 221 0
-1401 3 4 5 0
-1401 -7 403 0
-1401 -7 -76 0
-1401 -7 -77 0
-1401 -7 -78 0
-1401 -7 -132 0
-1401 -7 -133 0
-1401 -7 -134 0
-1401 -7 -135 0
-1401 -185 0
-1401 -14 408 0
-1401 -14 -83 0
-1401 -14 -84 0
-1401 -14 -85 0
-1401 -14 -138 0
-1401 -14 -139 0
-1401 -14 -140 0
-1401 -14 -141 0
-1401 -190 0
-1401 -21 413 0
-1401 -21 -90 0
-1401 -21 -91 0
-1401 -21 -92 0
-1401 -21 -144 0
-1401 -21 -145 0
-1401 -21 -146 0
-1401 -21 -147 0
-1401 -195 0
-1401 396 0
-1402 221 0
-1402 4 5 6 0
-1402 -7 403 0
-1402 -7 -77 0
-1402 -7 -78 0
-1402 -7 -79 0
-1402 -7 -133 0
-1402 -7 -134 0
-1402 -7 -135 0
-1402 -186 0
-1402 -14 408 0
-1402 -14 -84 0
-1402 -14 -85 0
-1402 -14 -86 0
-1402 -14 -139 0
-1402 -14 -140 0
-1402 -14 -141 0
-1402 -191 0
-1402 -21 413 0
-1402 -21 -91 0
-1402 -21 -92 0
-1402 -21 -93 0
-1402 -21 -145 0
-1402 -21 -146 0
-1402 -21 -147 0
-1402 -196 0
-1402 397 0
-1403 221 0
-1403 60 61 62 0
-1403 -66 403 0
-1403 -66 -15 0
-1403 -66 -16 0
-1403 -66 -17 0
-1403 -66 -131 0
-1403 -66 -132 0
-1403 -66 -133 0
-1403 -183 0
-1403 -73 408 0
-1403 -73 -22 0
-1403 -73 -23 0
-1403 -73 -24 0
-1403 -73 -137 0
-1403 -73 -138 0
-1403 -73 -139 0
-1403 -188 0
-1403 -80 413 0
-1403 -80 -29 0
-1403 -80 -30 0
-1403 -80 -31 0
-1403 -80 -143 0
-1403 -80 -144 0
-1403 -80 -145 0
-1403 -193 0
-1403 394 0
-1404 221 0
-1404 61 62 63 0
-1404 -66 403 0
-1404 -66 -16 0
-1404 -66 -17 0
-1404 -66 -18 0
-1404 -66 -131 0
-1404 -66 -132 0
-1404 -66 -133 0
-1404 -66 -134 0
-1404 -184 0
-1404 -73 408 0
-1404 -73 -23 0
-1404 -73 -24 0
-1404 -73 -25 0
-1404 -73 -137 0
-1404 -73 -138 0
-1404 -73 -139 0
-1404 -73 -140 0
-1404 -189 0
-1404 -80 413 0
-1404 -80 -30 0
-1404 -80 -31 0
-1404 -80 -32 0
-1404 -80 -143 0
-1404 -80 -144 0
-1404 -80 -145 0
-1404 -80 -146 0
-1404 -194 0
-1404 395 0
-1405 221 0
-1405 62 63 64 0
-1405 -66 403 0
-1405 -66 -17 0
-1405 -66 -18 0
-1405 -66 -19 0
-1405 -66 -132 0
-1405 -66 -133 0
-1405 -66 -134 0
-1405 -66 -135 0
-1405 -185 0
-1405 -73 408 0
-1405 -73 -24 0
-1405 -73 -25 0
-1405 -73 -26 0
-1405 -73 -138 0
-1405 -73 -139 0
-1405 -73 -140 0
-1405 -73 -141 0
-1405 -190 0
-1405 -80 413 0
-1405 -80 -31 0
-1405 -80 -32 0
-1405 -80 -33 0
-1405 -80 -144 0
-1405 -80 -145 0
-1405 -80 -146 0
-1405 -80 -147 0
-1405 -195 0
-1405 396 0
-1406 221 0
-1406 63 64 65 0
-1406 -66 403 0
-1406 -66 -18 0
-1406 -66 -19 0
-1406 -66 -20 0
-1406 -66 -133 0
-1406 -66 -134 0
-1406 -66 -135 0
-1406 -186 0
-1406 -73 408 0
-1406 -73 -25 0
-1406 -73 -26 0
-1406 -73 -27 0
-1406 -73 -139 0
-1406 -73 -140 0
-1406 -73 -141 0
-1406 -191 0
-1406 -80 413 0
-1406 -80 -32 0
-1406 -80 -33 0
-1406 -80 -34 0
-1406 -80 -145 0
-1406 -80 -146 0
-1406 -80 -147 0
-1406 -196 0
-1406 397 0
-1407 221 0
-1407 119 120 121 0
-1407 -124 403 0
-1407 -124 -15 0
-1407 -124 -16 0
-1407 -124 -17 0
-1407 -124 -74 0
-1407 -124 -75 0
-1407 -124 -76 0
-1407 -183 0
-1407 -130 408 0
-1407 -130 -22 0
-1407 -130 -23 0
-1407 -130 -24 0
-1407 -130 -81 0
-1407 -130 -82 0
-1407 -130 -83 0
-1407 -188 0
-1407 -136 413 0
-1407 -136 -29 0
-1407 -136 -30 0
-1407 -136 -31 0
-1407 -136 -88 0
-1407 -136 -89 0
-1407 -136 -90 0
-1407 -193 0
-1407 394 0
-1408 221 0
-1408 119 120 121 122 0
-1408 -124 403 0
-1408 -124 -16 0
-1408 -124 -17 0
-1408 -124 -18 0
-1408 -124 -75 0
-1408 -124 -76 0
-1408 -124 -77 0
-1408 -184 0
-1408 -130 408 0
-1408 -130 -23 0
-1408 -130 -24 0
-1408 -130 -25 0
-1408 -130 -82 0
-1408 -130 -83 0
-1408 -130 -84 0
-1408 -189 0
-1408 -136 413 0
-1408 -136 -30 0
-1408 -136 -31 0
-1408 -136 -32 0
-1408 -136 -89 0
-1408 -136 -90 0
-1408 -136 -91 0
-1408 -194 0
-1408 395 0
-1409 221 0
-1409 120 121 122 123 0
-1409 -124 403 0
-1409 -124 -17 0
-1409 -124 -18 0
-1409 -124 -19 0
-1409 -124 -76 0
-1409 -124 -77 0
-1409 -124 -78 0
-1409 -185 0
-1409 -130 408 0
-1409 -130 -24 0
-1409 -130 -25 0
-1409 -130 -26 0
-1409 -130 -83 0
-1409 -130 -84 0
-1409 -130 -85 0
-1409 -190 0
-1409 -136 413 0
-1409 -136 -31 0
-1409 -136 -32 0
-1409 -136 -33 0
-1409 -136 -90 0
-1409 -136 -91 0
-1409 -136 -92 0
-1409 -195 0
-1409 396 0
-1410 221 0
-1410 121 122 123 0
-1410 -124 403 0
-1410 -124 -18 0
-1410 -124 -19 0
-1410 -124 -20 0
-1410 -124 -77 0
-1410 -124 -78 0
-1410 -124 -79 0
-1410 -186 0
-1410 -130 408 0
-1410 -130 -25 0
-1410 -130 -26 0
-1410 -130 -27 0
-1410 -130 -84 0
-1410 -130 -85 0
-1410 -130 -86 0
-1410 -191 0
-1410 -136 413 0
-1410 -136 -32 0
-1410 -136 -33 0
-1410 -136 -34 0
-1410 -136 -91 0
-1410 -136 -92 0
-1410 -136 -93 0
-1410 -196 0
-1410 397 0
-1411 280 0
-1411 -229 0
-1411 -288 0
-1411 -346 0
-1411 -399 0
-1411 443 0
-1411 449 0
-1412 280 0
-1412 -230 0
-1412 -289 0
-1412 -346 0
-1412 -347 0
-1412 -399 0
-1412 -400 0
-1412 444 0
-1412 449 0
-1413 280 0
-1413 -231 0
-1413 -290 0
-1413 -347 0
-1413 -348 0
-1413 -399 0
-1413 -400 0
-1413 -401 0
-1413 445 0
-1413 449 0
-1414 280 0
-1414 -232 0
-1414 -291 0
-1414 -348 0
-1414 -349 0
-1414 -400 0
-1414 -401 0
-1414 -402 0
-1414 446 0
-1414 449 0
-1415 280 0
-1415 -233 0
-1415 -292 0
-1415 -349 0
-1415 -350 0
-1415 -401 0
-1415 -402 0
-1415 447 0
-1415 449 0
-1416 280 0
-1416 -234 0
-1416 -293 0
-1416 -350 0
-1416 -402 0
-1416 448 0
-1416 449 0
-1417 280 0
-1417 281 0
-1417 -287 456 0
-1417 -287 -352 0
-1417 -287 -404 0
-1417 -236 0
-1417 -294 463 0
-1417 -294 -358 0
-1417 -294 -409 0
-1417 -243 0
-1417 -301 470 0
-1417 -301 -364 0
-1417 -301 -414 0
-1417 -250 0
-1417 443 0
-1418 280 0
-1418 282 0
-1418 -287 456 0
-1418 -287 -352 0
-1418 -287 -353 0
-1418 -287 -404 0
-1418 -287 -405 0
-1418 -237 0
-1418 -294 463 0
-1418 -294 -358 0
-1418 -294 -359 0
-1418 -294 -409 0
-1418 -294 -410 0
-1418 -244 0
-1418 -301 470 0
-1418 -301 -364 0
-1418 -301 -365 0
-1418 -301 -414 0
-1418 -301 -415 0
-1418 -251 0
-1418 444 0
-1419 280 0
-1419 283 0
-1419 -287 456 0
-1419 -287 -353 0
-1419 -287 -354 0
-1419 -287 -404 0
-1419 -287 -405 0
-1419 -287 -406 0
-1419 -238 0
-1419 -294 463 0
-1419 -294 -359 0
-1419 -294 -360 0
-1419 -294 -409 0
-1419 -294 -410 0
-1419 -294 -411 0
-1419 -245 0
-1419 -301 470 0
-1419 -301 -365 0
-1419 -301 -366 0
-1419 -301 -414 0
-1419 -301 -415 0
-1419 -301 -416 0
-1419 -252 0
-1419 445 0
-1420 280 0
-1420 284 0
-1420 -287 456 0
-1420 -287 -354 0
-1420 -287 -355 0
-1420 -287 -405 0
-1420 -287 -406 0
-1420 -287 -407 0
-1420 -239 0
-1420 -294 463 0
-1420 -294 -360 0
-1420 -294 -361 0
-1420 -294 -410 0
-1420 -294 -411 0
-1420 -294 -412 0
-1420 -246 0
-1420 -301 470 0
-1420 -301 -366 0
-1420 -301 -367 0
-1420 -301 -415 0
-1420 -301 -416 0
-1420 -301 -417 0
-1420 -253 0
-1420 446 0
-1421 280 0
-1421 285 0
-1421 -287 456 0
-1421 -287 -355 0
-1421 -287 -356 0
-1421 -287 -406 0
-1421 -287 -407 0
-1421 -240 0
-1421 -294 463 0
-1421 -294 -361 0
-1421 -294 -362 0
-1421 -294 -411 0
-1421 -294 -412 0
-1421 -247 0
-1421 -301 470 0
-1421 -301 -367 0
-1421 -301 -368 0
-1421 -301 -416 0
-1421 -301 -417 0
-1421 -254 0
-1421 447 0
-1422 280 0
-1422 286 0
-1422 -287 456 0
-1422 -287 -356 0
-1422 -287 -407 0
-1422 -241 0
-1422 -294 463 0
-1422 -294 -362 0
-1422 -294 -412 0
-1422 -248 0
-1422 -301 470 0
-1422 -301 -368 0
-1422 -301 -417 0
-1422 -255 0
-1422 448 0
-1423 280 0
-1423 340 0
-1423 -345 456 0
-1423 -345 -295 0
-1423 -345 -404 0
-1423 -236 0
-1423 -351 463 0
-1423 -351 -302 0
-1423 -351 -409 0
-1423 -243 0
-1423 -357 470 0
-1423 -357 -309 0
-1423 -357 -414 0
-1423 -250 0
-1423 443 0
-1424 280 0
-1424 340 341 0
-1424 -345 456 0
-1424 -345 -296 0
-1424 -345 -404 0
-1424 -345 -405 0
-1424 -237 0
-1424 -351 463 0
-1424 -351 -303 0
-1424 -351 -409 0
-1424 -351 -410 0
-1424 -244 0
-1424 -357 470 0
-1424 -357 -310 0
-1424 -357 -414 0
-1424 -357 -415 0
-1424 -251 0
-1424 444 0
-1425 280 0
-1425 341 342 0
-1425 -345 456 0
-1425 -345 -297 0
-1425 -345 -404 0
-1425 -345 -405 0
-1425 -345 -406 0
-1425 -238 0
-1425 -351 463 0
-1425 -351 -304 0
-1425 -351 -409 0
-1425 -351 -410 0
-1425 -351 -411 0
-1425 -245 0
-1425 -357 470 0
-1425 -357 -311 0
-1425 -357 -414 0
-1425 -357 -415 0
-1425 -357 -416 0
-1425 -252 0
-1425 445 0
-1426 280 0
-1426 342 343 0
-1426 -345 456 0
-1426 -345 -298 0
-1426 -345 -405 0
-1426 -345 -406 0
-1426 -345 -407 0
-1426 -239 0
-1426 -351 463 0
-1426 -351 -305 0
-1426 -351 -410 0
-1426 -351 -411 0
-1426 -351 -412 0
-1426 -246 0
-1426 -357 470 0
-1426 -357 -312 0
-1426 -357 -415 0
-1426 -357 -416 0
-1426 -357 -417 0
-1426 -253 0
-1426 446 0
-1427 280 0
-1427 343 344 0
-1427 -345 456 0
-1427 -345 -299 0
-1427 -345 -406 0
-1427 -345 -407 0
-1427 -240 0
-1427 -351 463 0
-1427 -351 -306 0
-1427 -351 -411 0
-1427 -351 -412 0
-1427 -247 0
-1427 -357 470 0
-1427 -357 -313 0
-1427 -357 -416 0
-1427 -357 -417 0
-1427 -254 0
-1427 447 0
-1428 280 0
-1428 344 0
-1428 -345 456 0
-1428 -345 -300 0
-1428 -345 -407 0
-1428 -241 0
-1428 -351 463 0
-1428 -351 -307 0
-1428 -351 -412 0
-1428 -248 0
-1428 -357 470 0
-1428 -357 -314 0
-1428 -357 -417 0
-1428 -255 0
-1428 448 0
-1429 280 0
-1429 394 0
-1429 -398 456 0
-1429 -398 -295 0
-1429 -398 -352 0
-1429 -236 0
-1429 -403 463 0
-1429 -403 -302 0
-1429 -403 -358 0
-1429 -243 0
-1429 -408 470 0
-1429 -408 -309 0
-1429 -408 -364 0
-1429 -250 0
-1429 443 0
-1430 280 0
-1430 394 395 0
-1430 -398 456 0
-1430 -398 -296 0
-1430 -398 -352 0
-1430 -398 -353 0
-1430 -237 0
-1430 -403 463 0
-1430 -403 -303 0
-1430 -403 -358 0
-1430 -403 -359 0
-1430 -244 0
-1430 -408 470 0
-1430 -408 -310 0
-1430 -408 -364 0
-1430 -408 -365 0
-1430 -251 0
-1430 444 0
-1431 280 0
-1431 394 395 396 0
-1431 -398 456 0
-1431 -398 -297 0
-1431 -398 -353 0
-1431 -398 -354 0
-1431 -238 0
-1431 -403 463 0
-1431 -403 -304 0
-1431 -403 -359 0
-1431 -403 -360 0
-1431 -245 0
-1431 -408 470 0
-1431 -408 -311 0
-1431 -408 -365 0
-1431 -408 -366 0
-1431 -252 0
-1431 445 0
-1432 280 0
-1432 395 396 397 0
-1432 -398 456 0
-1432 -398 -298 0
-1432 -398 -354 0
-1432 -398 -355 0
-1432 -239 0
-1432 -403 463 0
-1432 -403 -305 0
-1432 -403 -360 0
-1432 -403 -361 0
-1432 -246 0
-1432 -408 470 0
-1432 -408 -312 0
-1432 -408 -366 0
-1432 -408 -367 0
-1432 -253 0
-1432 446 0
-1433 280 0
-1433 396 397 0
-1433 -398 456 0
-1433 -398 -299 0
-1433 -398 -355 0
-1433 -398 -356 0
-1433 -240 0
-1433 -403 463 0
-1433 -403 -306 0
-1433 -403 -361 0
-1433 -403 -362 0
-1433 -247 0
-1433 -408 470 0
-1433 -408 -313 0
-1433 -408 -367 0
-1433 -408 -368 0
-1433 -254 0
-1433 447 0
-1434 280 0
-1434 397 0
-1434 -398 456 0
-1434 -398 -300 0
-1434 -398 -356 0
-1434 -241 0
-1434 -403 463 0
-1434 -403 -307 0
-1434 -403 -362 0
-1434 -248 0
-1434 -408 470 0
-1434 -408 -314 0
-1434 -408 -368 0
-1434 -255 0
-1434 448 0
-1435 339 0
-1435 -288 0
-1435 -229 0
-1435 -346 0
-1435 -399 0
-1435 502 0
-1435 508 0
-1436 339 0
-1436 -289 0
-1436 -230 0
-1436 -346 0
-1436 -347 0
-1436 -399 0
-1436 -400 0
-1436 503 0
-1436 508 0
-1437 339 0
-1437 -290 0
-1437 -231 0
-1437 -347 0
-1437 -348 0
-1437 -399 0
-1437 -400 0
-1437 -401 0
-1437 504 0
-1437 508 0
-1438 339 0
-1438 -291 0
-1438 -232 0
-1438 -348 0
-1438 -349 0
-1438 -400 0
-1438 -401 0
-1438 -402 0
-1438 505 0
-1438 508 0
-1439 339 0
-1439 -292 0
-1439 -233 0
-1439 -349 0
-1439 -350 0
-1439 -401 0
-1439 -402 0
-1439 506 0
-1439 508 0
-1440 339 0
-1440 -293 0
-1440 -234 0
-1440 -350 0
-1440 -402 0
-1440 507 0
-1440 508 0
-1441 339 0
-1441 222 0
-1441 -228 515 0
-1441 -228 -352 0
-1441 -228 -404 0
-1441 -295 0
-1441 -235 522 0
-1441 -235 -358 0
-1441 -235 -409 0
-1441 -302 0
-1441 -242 529 0
-1441 -242 -364 0
-1441 -242 -414 0
-1441 -309 0
-1441 502 0
-1442 339 0
-1442 223 0
-1442 -228 515 0
-1442 -228 -352 0
-1442 -228 -353 0
-1442 -228 -404 0
-1442 -228 -405 0
-1442 -296 0
-1442 -235 522 0
-1442 -235 -358 0
-1442 -235 -359 0
-1442 -235 -409 0
-1442 -235 -410 0
-1442 -303 0
-1442 -242 529 0
-1442 -242 -364 0
-1442 -242 -365 0
-1442 -242 -414 0
-1442 -242 -415 0
-1442 -310 0
-1442 503 0
-1443 339 0
-1443 224 0
-1443 -228 515 0
-1443 -228 -353 0
-1443 -228 -354 0
-1443 -228 -404 0
-1443 -228 -405 0
-1443 -228 -406 0
-1443 -297 0
-1443 -235 522 0
-1443 -235 -359 0
-1443 -235 -360 0
-1443 -235 -409 0
-1443 -235 -410 0
-1443 -235 -411 0
-1443 -304 0
-1443 -242 529 0
-1443 -242 -365 0
-1443 -242 -366 0
-1443 -242 -414 0
-1443 -242 -415 0
-1443 -242 -416 0
-1443 -311 0
-1443 504 0
-1444 339 0
-1444 225 0
-1444 -228 515 0
-1444 -228 -354 0
-1444 -228 -355 0
-1444 -228 -405 0
-1444 -228 -406 0
-1444 -228 -407 0
-1444 -298 0
-1444 -235 522 0
-1444 -235 -360 0
-1444 -235 -361 0
-1444 -235 -410 0
-1444 -235 -411 0
-1444 -235 -412 0
-1444 -305 0
-1444 -242 529 0
-1444 -242 -366 0
-1444 -242 -367 0
-1444 -242 -415 0
-1444 -242 -416 0
-1444 -242 -417 0
-1444 -312 0
-1444 505 0
-1445 339 0
-1445 226 0
-1445 -228 515 0
-1445 -228 -355 0
-1445 -228 -356 0
-1445 -228 -406 0
-1445 -228 -407 0
-1445 -299 0
-1445 -235 522 0
-1445 -235 -361 0
-1445 -235 -362 0
-1445 -235 -411 0
-1445 -235 -412 0
-1445 -306 0
-1445 -242 529 0
-1445 -242 -367 0
-1445 -242 -368 0
-1445 -242 -416 0
-1445 -242 -417 0
-1445 -313 0
-1445 506 0
-1446 339 0
-1446 227 0
-1446 -228 515 0
-1446 -228 -356 0
-1446 -228 -407 0
-1446 -300 0
-1446 -235 522 0
-1446 -235 -362 0
-1446 -235 -412 0
-1446 -307 0
-1446 -242 529 0
-1446 -242 -368 0
-1446 -242 -417 0
-1446 -314 0
-1446 507 0
-1447 339 0
-1447 340 0
-1447 -345 515 0
-1447 -345 -236 0
-1447 -345 -404 0
-1447 -295 0
-1447 -351 522 0
-1447 -351 -243 0
-1447 -351 -409 0
-1447 -302 0
-1447 -357 529 0
-1447 -357 -250 0
-1447 -357 -414 0
-1447 -309 0
-1447 502 0
-1448 339 0
-1448 340 341 0
-1448 -345 515 0
-1448 -345 -237 0
-1448 -345 -404 0
-1448 -345 -405 0
-1448 -296 0
-1448 -351 522 0
-1448 -351 -244 0
-1448 -351 -409 0
-1448 -351 -410 0
-1448 -303 0
-1448 -357 529 0
-1448 -357 -251 0
-1448 -357 -414 0
-1448 -357 -415 0
-1448 -310 0
-1448 503 0
-1449 339 0
-1449 341 342 0
-1449 -345 515 0
-1449 -345 -238 0
-1449 -345 -404 0
-1449 -345 -405 0
-1449 -345 -406 0
-1449 -297 0
-1449 -351 522 0
-1449 -351 -245 0
-1449 -351 -409 0
-1449 -351 -410 0
-1449 -351 -411 0
-1449 -304 0
-1449 -357 529 0
-1449 -357 -252 0
-1449 -357 -414 0
-1449 -357 -415 0
-1449 -357 -416 0
-1449 -311 0
-1449 504 0
-1450 339 0
-1450 342 343 0
-1450 -345 515 0
-1450 -345 -239 0
-1450 -345 -405 0
-1450 -345 -406 0
-1450 -345 -407 0
-1450 -298 0
-1450 -351 522 0
-1450 -351 -246 0
-1450 -351 -410 0
-1450 -351 -411 0
-1450 -351 -412 0
-1450 -305 0
-1450 -357 529 0
-1450 -357 -253 0
-1450 -357 -415 0
-1450 -357 -416 0
-1450 -357 -417 0
-1450 -312 0
-1450 505 0
-1451 339 0
-1451 343 344 0
-1451 -345 515 0
-1451 -345 -240 0
-1451 -345 -406 0
-1451 -345 -407 0
-1451 -299 0
-1451 -351 522 0
-1451 -351 -247 0
-1451 -351 -411 0
-1451 -351 -412 0
-1451 -306 0
-1451 -357 529 0
-1451 -357 -254 0
-1451 -357 -416 0
-1451 -357 -417 0
-1451 -313 0
-1451 506 0
-1452 339 0
-1452 344 0
-1452 -345 515 0
-1452 -345 -241 0
-1452 -345 -407 0
-1452 -300 0
-1452 -351 522 0
-1452 -351 -248 0
-1452 -351 -412 0
-1452 -307 0
-1452 -357 529 0
-1452 -357 -255 0
-1452 -357 -417 0
-1452 -314 0
-1452 507 0
-1453 339 0
-1453 394 0
-1453 -398 515 0
-1453 -398 -236 0
-1453 -398 -352 0
-1453 -295 0
-1453 -403 522 0
-1453 -403 -243 0
-1453 -403 -358 0
-1453 -302 0
-1453 -408 529 0
-1453 -408 -250 0
-1453 -408 -364 0
-1453 -309 0
-1453 502 0
-1454 339 0
-1454 394 395 0
-1454 -398 515 0
-1454 -398 -237 0
-1454 -398 -352 0
-1454 -398 -353 0
-1454 -296 0
-1454 -403 522 0
-1454 -403 -244 0
-1454 -403 -358 0
-1454 -403 -359 0
-1454 -303 0
-1454 -408 529 0
-1454 -408 -251 0
-1454 -408 -364 0
-1454 -408 -365 0
-1454 -310 0
-1454 503 0
-1455 339 0
-1455 394 395 396 0
-1455 -398 515 0
-1455 -398 -238 0
-1455 -398 -353 0
-1455 -398 -354 0
-1455 -297 0
-1455 -403 522 0
-1455 -403 -245 0
-1455 -403 -359 0
-1455 -403 -360 0
-1455 -304 0
-1455 -408 529 0
-1455 -408 -252 0
-1455 -408 -365 0
-1455 -408 -366 0
-1455 -311 0
-1455 504 0
-1456 339 0
-1456 395 396 397 0
-1456 -398 515 0
-1456 -398 -239 0
-1456 -398 -354 0
-1456 -398 -355 0
-1456 -298 0
-1456 -403 522 0
-1456 -403 -246 0
-1456 -403 -360 0
-1456 -403 -361 0
-1456 -305 0
-1456 -408 529 0
-1456 -408 -253 0
-1456 -408 -366 0
-1456 -408 -367 0
-1456 -312 0
-1456 505 0
-1457 339 0
-1457 396 397 0
-1457 -398 515 0
-1457 -398 -240 0
-1457 -398 -355 0
-1457 -398 -356 0
-1457 -299 0
-1457 -403 522 0
-1457 -403 -247 0
-1457 -403 -361 0
-1457 -403 -362 0
-1457 -306 0
-1457 -408 529 0
-1457 -408 -254 0
-1457 -408 -367 0
-1457 -408 -368 0
-1457 -313 0
-1457 506 0
-1458 339 0
-1458 397 0
-1458 -398 515 0
-1458 -398 -241 0
-1458 -398 -356 0
-1458 -300 0
-1458 -403 522 0
-1458 -403 -248 0
-1458 -403 -362 0
-1458 -307 0
-1458 -408 529 0
-1458 -408 -255 0
-1458 -408 -368 0
-1458 -314 0
-1458 507 0
-1459 393 0
-1459 -346 0
-1459 -229 0
-1459 -230 0
-1459 -288 0
-1459 -289 0
-1459 -399 0
-1459 -400 0
-1459 561 0
-1459 566 0
-1460 393 0
-1460 -347 0
-1460 -230 0
-1460 -231 0
-1460 -289 0
-1460 -290 0
-1460 -399 0
-1460 -400 0
-1460 -401 0
-1460 562 0
-1460 566 0
-1461 393 0
-1461 -348 0
-1461 -231 0
-1461 -232 0
-1461 -290 0
-1461 -291 0
-1461 -399 0
-1461 -400 0
-1461 -401 0
-1461 -402 0
-1461 563 0
-1461 566 0
-1462 393 0
-1462 -349 0
-1462 -232 0
-1462 -233 0
-1462 -291 0
-1462 -292 0
-1462 -400 0
-1462 -401 0
-1462 -402 0
-1462 564 0
-1462 566 0
-1463 393 0
-1463 -350 0
-1463 -233 0
-1463 -234 0
-1463 -292 0
-1463 -293 0
-1463 -401 0
-1463 -402 0
-1463 565 0
-1463 566 0
-1464 393 0
-1464 222 223 0
-1464 -228 572 0
-1464 -228 -295 0
-1464 -228 -296 0
-1464 -228 -404 0
-1464 -228 -405 0
-1464 -352 0
-1464 -235 578 0
-1464 -235 -302 0
-1464 -235 -303 0
-1464 -235 -409 0
-1464 -235 -410 0
-1464 -358 0
-1464 -242 584 0
-1464 -242 -309 0
-1464 -242 -310 0
-1464 -242 -414 0
-1464 -242 -415 0
-1464 -364 0
-1464 561 0
-1465 393 0
-1465 223 224 0
-1465 -228 572 0
-1465 -228 -296 0
-1465 -228 -297 0
-1465 -228 -404 0
-1465 -228 -405 0
-1465 -228 -406 0
-1465 -353 0
-1465 -235 578 0
-1465 -235 -303 0
-1465 -235 -304 0
-1465 -235 -409 0
-1465 -235 -410 0
-1465 -235 -411 0
-1465 -359 0
-1465 -242 584 0
-1465 -242 -310 0
-1465 -242 -311 0
-1465 -242 -414 0
-1465 -242 -415 0
-1465 -242 -416 0
-1465 -365 0
-1465 562 0
-1466 393 0
-1466 224 225 0
-1466 -228 572 0
-1466 -228 -297 0
-1466 -228 -298 0
-1466 -228 -404 0
-1466 -228 -405 0
-1466 -228 -406 0
-1466 -228 -407 0
-1466 -354 0
-1466 -235 578 0
-1466 -235 -304 0
-1466 -235 -305 0
-1466 -235 -409 0
-1466 -235 -410 0
-1466 -235 -411 0
-1466 -235 -412 0
-1466 -360 0
-1466 -242 584 0
-1466 -242 -311 0
-1466 -242 -312 0
-1466 -242 -414 0
-1466 -242 -415 0
-1466 -242 -416 0
-1466 -242 -417 0
-1466 -366 0
-1466 563 0
-1467 393 0
-1467 225 226 0
-1467 -228 572 0
-1467 -228 -298 0
-1467 -228 -299 0
-1467 -228 -405 0
-1467 -228 -406 0
-1467 -228 -407 0
-1467 -355 0
-1467 -235 578 0
-1467 -235 -305 0
-1467 -235 -306 0
-1467 -235 -410 0
-1467 -235 -411 0
-1467 -235 -412 0
-1467 -361 0
-1467 -242 584 0
-1467 -242 -312 0
-1467 -242 -313 0
-1467 -242 -415 0
-1467 -242 -416 0
-1467 -242 -417 0
-1467 -367 0
-1467 564 0
-1468 393 0
-1468 226 227 0
-1468 -228 572 0
-1468 -228 -299 0
-1468 -228 -300 0
-1468 -228 -406 0
-1468 -228 -407 0
-1468 -356 0
-1468 -235 578 0
-1468 -235 -306 0
-1468 -235 -307 0
-1468 -235 -411 0
-1468 -235 -412 0
-1468 -362 0
-1468 -242 584 0
-1468 -242 -313 0
-1468 -242 -314 0
-1468 -242 -416 0
-1468 -242 -417 0
-1468 -368 0
-1468 565 0
-1469 393 0
-1469 281 282 0
-1469 -287 572 0
-1469 -287 -236 0
-1469 -287 -237 0
-1469 -287 -404 0
-1469 -287 -405 0
-1469 -352 0
-1469 -294 578 0
-1469 -294 -243 0
-1469 -294 -244 0
-1469 -294 -409 0
-1469 -294 -410 0
-1469 -358 0
-1469 -301 584 0
-1469 -301 -250 0
-1469 -301 -251 0
-1469 -301 -414 0
-1469 -301 -415 0
-1469 -364 0
-1469 561 0
-1470 393 0
-1470 282 283 0
-1470 -287 572 0
-1470 -287 -237 0
-1470 -287 -238 0
-1470 -287 -404 0
-1470 -287 -405 0
-1470 -287 -406 0
-1470 -353 0
-1470 -294 578 0
-1470 -294 -244 0
-1470 -294 -245 0
-1470 -294 -409 0
-1470 -294 -410 0
-1470 -294 -411 0
-1470 -359 0
-1470 -301 584 0
-1470 -301 -251 0
-1470 -301 -252 0
-1470 -301 -414 0
-1470 -301 -415 0
-1470 -301 -416 0
-1470 -365 0
-1470 562 0
-1471 393 0
-1471 283 284 0
-1471 -287 572 0
-1471 -287 -238 0
-1471 -287 -239 0
-1471 -287 -404 0
-1471 -287 -405 0
-1471 -287 -406 0
-1471 -287 -407 0
-1471 -354 0
-1471 -294 578 0
-1471 -294 -245 0
-1471 -294 -246 0
-1471 -294 -409 0
-1471 -294 -410 0
-1471 -294 -411 0
-1471 -294 -412 0
-1471 -360 0
-1471 -301 584 0
-1471 -301 -252 0
-1471 -301 -253 0
-1471 -301 -414 0
-1471 -301 -415 0
-1471 -301 -416 0
-1471 -301 -417 0
-1471 -366 0
-1471 563 0
-1472 393 0
-1472 284 285 0
-1472 -287 572 0
-1472 -287 -239 0
-1472 -287 -240 0
-1472 -287 -405 0
-1472 -287 -406 0
-1472 -287 -407 0
-1472 -355 0
-1472 -294 578 0
-1472 -294 -246 0
-1472 -294 -247 0
-1472 -294 -410 0
-1472 -294 -411 0
-1472 -294 -412 0
-1472 -361 0
-1472 -301 584 0
-1472 -301 -253 0
-1472 -301 -254 0
-1472 -301 -415 0
-1472 -301 -416 0
-1472 -301 -417 0
-1472 -367 0
-1472 564 0
-1473 393 0
-1473 285 286 0
-1473 -287 572 0
-1473 -287 -240 0
-1473 -287 -241 0
-1473 -287 -406 0
-1473 -287 -407 0
-1473 -356 0
-1473 -294 578 0
-1473 -294 -247 0
-1473 -294 -248 0
-1473 -294 -411 0
-1473 -294 -412 0
-1473 -362 0
-1473 -301 584 0
-1473 -301 -254 0
-1473 -301 -255 0
-1473 -301 -416 0
-1473 -301 -417 0
-1473 -368 0
-1473 565 0
-1474 393 0
-1474 394 395 0
-1474 -398 572 0
-1474 -398 -236 0
-1474 -398 -237 0
-1474 -398 -295 0
-1474 -398 -296 0
-1474 -352 0
-1474 -403 578 0
-1474 -403 -243 0
-1474 -403 -244 0
-1474 -403 -302 0
-1474 -403 -303 0
-1474 -358 0
-1474 -408 584 0
-1474 -408 -250 0
-1474 -408 -251 0
-1474 -408 -309 0
-1474 -408 -310 0
-1474 -364 0
-1474 561 0
-1475 393 0
-1475 394 395 396 0
-1475 -398 572 0
-1475 -398 -237 0
-1475 -398 -238 0
-1475 -398 -296 0
-1475 -398 -297 0
-1475 -353 0
-1475 -403 578 0
-1475 -403 -244 0
-1475 -403 -245 0
-1475 -403 -303 0
-1475 -403 -304 0
-1475 -359 0
-1475 -408 584 0
-1475 -408 -251 0
-1475 -408 -252 0
-1475 -408 -310 0
-1475 -408 -311 0
-1475 -365 0
-1475 562 0
-1476 393 0
-1476 394 395 396 397 0
-1476 -398 572 0
-1476 -398 -238 0
-1476 -398 -239 0
-1476 -398 -297 0
-1476 -398 -298 0
-1476 -354 0
-1476 -403 578 0
-1476 -403 -245 0
-1476 -403 -246 0
-1476 -403 -304 0
-1476 -403 -305 0
-1476 -360 0
-1476 -408 584 0
-1476 -408 -252 0
-1476 -408 -253 0
-1476 -408 -311 0
-1476 -408 -312 0
-1476 -366 0
-1476 563 0
-1477 393 0
-1477 395 396 397 0
-1477 -398 572 0
-1477 -398 -239 0
-1477 -398 -240 0
-1477 -398 -298 0
-1477 -398 -299 0
-1477 -355 0
-1477 -403 578 0
-1477 -403 -246 0
-1477 -403 -247 0
-1477 -403 -305 0
-1477 -403 -306 0
-1477 -361 0
-1477 -408 584 0
-1477 -408 -253 0
-1477 -408 -254 0
-1477 -408 -312 0
-1477 -408 -313 0
-1477 -367 0
-1477 564 0
-1478 393 0
-1478 396 397 0
-1478 -398 572 0
-1478 -398 -240 0
-1478 -398 -241 0
-1478 -398 -299 0
-1478 -398 -300 0
-1478 -356 0
-1478 -403 578 0
-1478 -403 -247 0
-1478 -403 -248 0
-1478 -403 -306 0
-1478 -403 -307 0
-1478 -362 0
-1478 -408 584 0
-1478 -408 -254 0
-1478 -408 -255 0
-1478 -408 -313 0
-1478 -408 -314 0
-1478 -368 0
-1478 565 0
-1479 442 0
-1479 -399 0
-1479 -229 0
-1479 -230 0
-1479 -231 0
-1479 -288 0
-1479 -289 0
-1479 -290 0
-1479 -346 0
-1479 -347 0
-1479 -348 0
-1479 615 0
-1479 619 0
-1480 442 0
-1480 -400 0
-1480 -230 0
-1480 -231 0
-1480 -232 0
-1480 -289 0
-1480 -290 0
-1480 -291 0
-1480 -346 0
-1480 -347 0
-1480 -348 0
-1480 -349 0
-1480 616 0
-1480 619 0
-1481 442 0
-1481 -401 0
-1481 -231 0
-1481 -232 0
-1481 -233 0
-1481 -290 0
-1481 -291 0
-1481 -292 0
-1481 -347 0
-1481 -348 0
-1481 -349 0
-1481 -350 0
-1481 617 0
-1481 619 0
-1482 442 0
-1482 -402 0
-1482 -232 0
-1482 -233 0
-1482 -234 0
-1482 -291 0
-1482 -292 0
-1482 -293 0
-1482 -348 0
-1482 -349 0
-1482 -350 0
-1482 618 0
-1482 619 0
-1483 442 0
-1483 222 223 224 0
-1483 -228 624 0
-1483 -228 -295 0
-1483 -228 -296 0
-1483 -228 -297 0
-1483 -228 -352 0
-1483 -228 -353 0
-1483 -228 -354 0
-1483 -404 0
-1483 -235 629 0
-1483 -235 -302 0
-1483 -235 -303 0
-1483 -235 -304 0
-1483 -235 -358 0
-1483 -235 -359 0
-1483 -235 -360 0
-1483 -409 0
-1483 -242 634 0
-1483 -242 -309 0
-1483 -242 -310 0
-1483 -242 -311 0
-1483 -242 -364 0
-1483 -242 -365 0
-1483 -242 -366 0
-1483 -414 0
-1483 615 0
-1484 442 0
-1484 223 224 225 0
-1484 -228 624 0
-1484 -228 -296 0
-1484 -228 -297 0
-1484 -228 -298 0
-1484 -228 -352 0
-1484 -228 -353 0
-1484 -228 -354 0
-1484 -228 -355 0
-1484 -405 0
-1484 -235 629 0
-1484 -235 -303 0
-1484 -235 -304 0
-1484 -235 -305 0
-1484 -235 -358 0
-1484 -235 -359 0
-1484 -235 -360 0
-1484 -235 -361 0
-1484 -410 0
-1484 -242 634 0
-1484 -242 -310 0
-1484 -242 -311 0
-1484 -242 -312 0
-1484 -242 -364 0
-1484 -242 -365 0
-1484 -242 -366 0
-1484 -242 -367 0
-1484 -415 0
-1484 616 0
-1485 442 0
-1485 224 225 226 0
-1485 -228 624 0
-1485 -228 -297 0
-1485 -228 -298 0
-1485 -228 -299 0
-1485 -228 -353 0
-1485 -228 -354 0
-1485 -228 -355 0
-1485 -228 -356 0
-1485 -406 0
-1485 -235 629 0
-1485 -235 -304 0
-1485 -235 -305 0
-1485 -235 -306 0
-1485 -235 -359 0
-1485 -235 -360 0
-1485 -235 -361 0
-1485 -235 -362 0
-1485 -411 0
-1485 -242 634 0
-1485 -242 -311 0
-1485 -242 -312 0
-1485 -242 -313 0
-1485 -242 -365 0
-1485 -242 -366 0
-1485 -242 -367 0
-1485 -242 -368 0
-1485 -416 0
-1485 617 0
-1486 442 0
-1486 225 226 227 0
-1486 -228 624 0
-1486 -228 -298 0
-1486 -228 -299 0
-1486 -228 -300 0
-1486 -228 -354 0
-1486 -228 -355 0
-1486 -228 -356 0
-1486 -407 0
-1486 -235 629 0
-1486 -235 -305 0
-1486 -235 -306 0
-1486 -235 -307 0
-1486 -235 -360 0
-1486 -235 -361 0
-1486 -235 -362 0
-1486 -412 0
-1486 -242 634 0
-1486 -242 -312 0
-1486 -242 -313 0
-1486 -242 -314 0
-1486 -242 -366 0
-1486 -242 -367 0
-1486 -242 -368 0
-1486 -417 0
-1486 618 0
-1487 442 0
-1487 281 282 283 0
-1487 -287 624 0
-1487 -287 -236 0
-1487 -287 -237 0
-1487 -287 -238 0
-1487 -287 -352 0
-1487 -287 -353 0
-1487 -287 -354 0
-1487 -404 0
-1487 -294 629 0
-1487 -294 -243 0
-1487 -294 -244 0
-1487 -294 -245 0
-1487 -294 -358 0
-1487 -294 -359 0
-1487 -294 -360 0
-1487 -409 0
-1487 -301 634 0
-1487 -301 -250 0
-1487 -301 -251 0
-1487 -301 -252 0
-1487 -301 -364 0
-1487 -301 -365 0
-1487 -301 -366 0
-1487 -414 0
-1487 615 0
-1488 442 0
-1488 282 283 284 0
-1488 -287 624 0
-1488 -287 -237 0
-1488 -287 -238 0
-1488 -287 -239 0
-1488 -287 -352 0
-1488 -287 -353 0
-1488 -287 -354 0
-1488 -287 -355 0
-1488 -405 0
-1488 -294 629 0
-1488 -294 -244 0
-1488 -294 -245 0
-1488 -294 -246 0
-1488 -294 -358 0
-1488 -294 -359 0
-1488 -294 -360 0
-1488 -294 -361 0
-1488 -410 0
-1488 -301 634 0
-1488 -301 -251 0
-1488 -301 -252 0
-1488 -301 -253 0
-1488 -301 -364 0
-1488 -301 -365 0
-1488 -301 -366 0
-1488 -301 -367 0
-1488 -415 0
-1488 616 0
-1489 442 0
-1489 283 284 285 0
-1489 -287 624 0
-1489 -287 -238 0
-1489 -287 -239 0
-1489 -287 -240 0
-1489 -287 -353 0
-1489 -287 -354 0
-1489 -287 -355 0
-1489 -287 -356 0
-1489 -406 0
-1489 -294 629 0
-1489 -294 -245 0
-1489 -294 -246 0
-1489 -294 -247 0
-1489 -294 -359 0
-1489 -294 -360 0
-1489 -294 -361 0
-1489 -294 -362 0
-1489 -411 0
-1489 -301 634 0
-1489 -301 -252 0
-1489 -301 -253 0
-1489 -301 -254 0
-1489 -301 -365 0
-1489 -301 -366 0
-1489 -301 -367 0
-1489 -301 -368 0
-1489 -416 0
-1489 617 0
-1490 442 0
-1490 284 285 286 0
-1490 -287 624 0
-1490 -287 -239 0
-1490 -287 -240 0
-1490 -287 -241 0
-1490 -287 -354 0
-1490 -287 -355 0
-1490 -287 -356 0
-1490 -407 0
-1490 -294 629 0
-1490 -294 -246 0
-1490 -294 -247 0
-1490 -294 -248 0
-1490 -294 -360 0
-1490 -294 -361 0
-1490 -294 -362 0
-1490 -412 0
-1490 -301 634 0
-1490 -301 -253 0
-1490 -301 -254 0
-1490 -301 -255 0
-1490 -301 -366 0
-1490 -301 -367 0
-1490 -301 -368 0
-1490 -417 0
-1490 618 0
-1491 442 0
-1491 340 341 342 0
-1491 -345 624 0
-1491 -345 -236 0
-1491 -345 -237 0
-1491 -345 -238 0
-1491 -345 -295 0
-1491 -345 -296 0
-1491 -345 -297 0
-1491 -404 0
-1491 -351 629 0
-1491 -351 -243 0
-1491 -351 -244 0
-1491 -351 -245 0
-1491 -351 -302 0
-1491 -351 -303 0
-1491 -351 -304 0
-1491 -409 0
-1491 -357 634 0
-1491 -357 -250 0
-1491 -357 -251 0
-1491 -357 -252 0
-1491 -357 -309 0
-1491 -357 -310 0
-1491 -357 -311 0
-1491 -414 0
-1491 615 0
-1492 442 0
-1492 340 341 342 343 0
-1492 -345 624 0
-1492 -345 -237 0
-1492 -345 -238 0
-1492 -345 -239 0
-1492 -345 -296 0
-1492 -345 -297 0
-1492 -345 -298 0
-1492 -405 0
-1492 -351 629 0
-1492 -351 -244 0
-1492 -351 -245 0
-1492 -351 -246 0
-1492 -351 -303 0
-1492 -351 -304 0
-1492 -351 -305 0
-1492 -410 0
-1492 -357 634 0
-1492 -357 -251 0
-1492 -357 -252 0
-1492 -357 -253 0
-1492 -357 -310 0
-1492 -357 -311 0
-1492 -357 -312 0
-1492 -415 0
-1492 616 0
-1493 442 0
-1493 341 342 343 344 0
-1493 -345 624 0
-1493 -345 -238 0
-1493 -345 -239 0
-1493 -345 -240 0
-1493 -345 -297 0
-1493 -345 -298 0
-1493 -345 -299 0
-1493 -406 0
-1493 -351 629 0
-1493 -351 -245 0
-1493 -351 -246 0
-1493 -351 -247 0
-1493 -351 -304 0
-1493 -351 -305 0
-1493 -351 -306 0
-1493 -411 0
-1493 -357 634 0
-1493 -357 -252 0
-1493 -357 -253 0
-1493 -357 -254 0
-1493 -357 -311 0
-1493 -357 -312 0
-1493 -357 -313 0
-1493 -416 0
-1493 617 0
-1494 442 0
-1494 342 343 344 0
-1494 -345 624 0
-1494 -345 -239 0
-1494 -345 -240 0
-1494 -345 -241 0
-1494 -345 -298 0
-1494 -345 -299 0
-1494 -345 -300 0
-1494 -407 0
-1494 -351 629 0
-1494 -351 -246 0
-1494 -351 -247 0
-1494 -351 -248 0
-1494 -351 -305 0
-1494 -351 -306 0
-1494 -351 -307 0
-1494 -412 0
-1494 -357 634 0
-1494 -357 -253 0
-1494 -357 -254 0
-1494 -357 -255 0
-1494 -357 -312 0
-1494 -357 -313 0
-1494 -357 -314 0
-1494 -417 0
-1494 618 0
-1495 501 0
-1495 -450 0
-1495 -509 0
-1495 -567 0
-1495 -620 0
-1495 664 0
-1495 670 0
-1496 501 0
-1496 -451 0
-1496 -510 0
-1496 -567 0
-1496 -568 0
-1496 -620 0
-1496 -621 0
-1496 665 0
-1496 670 0
-1497 501 0
-1497 -452 0
-1497 -511 0
-1497 -568 0
-1497 -569 0
-1497 -620 0
-1497 -621 0
-1497 -622 0
-1497 666 0
-1497 670 0
-1498 501 0
-1498 -453 0
-1498 -512 0
-1498 -569 0
-1498 -570 0
-1498 -621 0
-1498 -622 0
-1498 -623 0
-1498 667 0
-1498 670 0
-1499 501 0
-1499 -454 0
-1499 -513 0
-1499 -570 0
-1499 -571 0
-1499 -622 0
-1499 -623 0
-1499 668 0
-1499 670 0
-1500 501 0
-1500 -455 0
-1500 -514 0
-1500 -571 0
-1500 -623 0
-1500 669 0
-1500 670 0
-1501 501 0
-1501 502 0
-1501 -508 677 0
-1501 -508 -573 0
-1501 -508 -625 0
-1501 -457 0
-1501 -515 684 0
-1501 -515 -579 0
-1501 -515 -630 0
-1501 -464 0
-1501 -522 691 0
-1501 -522 -585 0
-1501 -522 -635 0
-1501 -471 0
-1501 664 0
-1502 501 0
-1502 503 0
-1502 -508 677 0
-1502 -508 -573 0
-1502 -508 -574 0
-1502 -508 -625 0
-1502 -508 -626 0
-1502 -458 0
-1502 -515 684 0
-1502 -515 -579 0
-1502 -515 -580 0
-1502 -515 -630 0
-1502 -515 -631 0
-1502 -465 0
-1502 -522 691 0
-1502 -522 -585 0
-1502 -522 -586 0
-1502 -522 -635 0
-1502 -522 -636 0
-1502 -472 0
-1502 665 0
-1503 501 0
-1503 504 0
-1503 -508 677 0
-1503 -508 -574 0
-1503 -508 -575 0
-1503 -508 -625 0
-1503 -508 -626 0
-1503 -508 -627 0
-1503 -459 0
-1503 -515 684 0
-1503 -515 -580 0
-1503 -515 -581 0
-1503 -515 -630 0
-1503 -515 -631 0
-1503 -515 -632 0
-1503 -466 0
-1503 -522 691 0
-1503 -522 -586 0
-1503 -522 -587 0
-1503 -522 -635 0
-1503 -522 -636 0
-1503 -522 -637 0
-1503 -473 0
-1503 666 0
-1504 501 0
-1504 505 0
-1504 -508 677 0
-1504 -508 -575 0
-1504 -508 -576 0
-1504 -508 -626 0
-1504 -508 -627 0
-1504 -508 -628 0
-1504 -460 0
-1504 -515 684 0
-1504 -515 -581 0
-1504 -515 -582 0
-1504 -515 -631 0
-1504 -515 -632 0
-1504 -515 -633 0
-1504 -467 0
-1504 -522 691 0
-1504 -522 -587 0
-1504 -522 -588 0
-1504 -522 -636 0
-1504 -522 -637 0
-1504 -522 -638 0
-1504 -474 0
-1504 667 0
-1505 501 0
-1505 506 0
-1505 -508 677 0
-1505 -508 -576 0
-1505 -508 -577 0
-1505 -508 -627 0
-1505 -508 -628 0
-1505 -461 0
-1505 -515 684 0
-1505 -515 -582 0
-1505 -515 -583 0
-1505 -515 -632 0
-1505 -515 -633 0
-1505 -468 0
-1505 -522 691 0
-1505 -522 -588 0
-1505 -522 -589 0
-1505 -522 -637 0
-1505 -522 -638 0
-1505 -475 0
-1505 668 0
-1506 501 0
-1506 507 0
-1506 -508 677 0
-1506 -508 -577 0
-1506 -508 -628 0
-1506 -462 0
-1506 -515 684 0
-1506 -515 -583 0
-1506 -515 -633 0
-1506 -469 0
-1506 -522 691 0
-1506 -522 -589 0
-1506 -522 -638 0
-1506 -476 0
-1506 669 0
-1507 501 0
-1507 561 0
-1507 -566 677 0
-1507 -566 -516 0
-1507 -566 -625 0
-1507 -457 0
-1507 -572 684 0
-1507 -572 -523 0
-1507 -572 -630 0
-1507 -464 0
-1507 -578 691 0
-1507 -578 -530 0
-1507 -578 -635 0
-1507 -471 0
-1507 664 0
-1508 501 0
-1508 561 562 0
-1508 -566 677 0
-1508 -566 -517 0
-1508 -566 -625 0
-1508 -566 -626 0
-1508 -458 0
-1508 -572 684 0
-1508 -572 -524 0
-1508 -572 -630 0
-1508 -572 -631 0
-1508 -465 0
-1508 -578 691 0
-1508 -578 -531 0
-1508 -578 -635 0
-1508 -578 -636 0
-1508 -472 0
-1508 665 0
-1509 501 0
-1509 562 563 0
-1509 -566 677 0
-1509 -566 -518 0
-1509 -566 -625 0
-1509 -566 -626 0
-1509 -566 -627 0
-1509 -459 0
-1509 -572 684 0
-1509 -572 -525 0
-1509 -572 -630 0
-1509 -572 -631 0
-1509 -572 -632 0
-1509 -466 0
-1509 -578 691 0
-1509 -578 -532 0
-1509 -578 -635 0
-1509 -578 -636 0
-1509 -578 -637 0
-1509 -473 0
-1509 666 0
-1510 501 0
-1510 563 564 0
-1510 -566 677 0
-1510 -566 -519 0
-1510 -566 -626 0
-1510 -566 -627 0
-1510 -566 -628 0
-1510 -460 0
-1510 -572 684 0
-1510 -572 -526 0
-1510 -572 -631 0
-1510 -572 -632 0
-1510 -572 -633 0
-1510 -467 0
-1510 -578 691 0
-1510 -578 -533 0
-1510 -578 -636 0
-1510 -578 -637 0
-1510 -578 -638 0
-1510 -474 0
-1510 667 0
-1511 501 0
-1511 564 565 0
-1511 -566 677 0
-1511 -566 -520 0
-1511 -566 -627 0
-1511 -566 -628 0
-1511 -461 0
-1511 -572 684 0
-1511 -572 -527 0
-1511 -572 -632 0
-1511 -572 -633 0
-1511 -468 0
-1511 -578 691 0
-1511 -578 -534 0
-1511 -578 -637 0
-1511 -578 -638 0
-1511 -475 0
-1511 668 0
-1512 501 0
-1512 565 0
-1512 -566 677 0
-1512 -566 -521 0
-1512 -566 -628 0
-1512 -462 0
-1512 -572 684 0
-1512 -572 -528 0
-1512 -572 -633 0
-1512 -469 0
-1512 -578 691 0
-1512 -578 -535 0
-1512 -578 -638 0
-1512 -476 0
-1512 669 0
-1513 501 0
-1513 615 0
-1513 -619 677 0
-1513 -619 -516 0
-1513 -619 -573 0
-1513 -457 0
-1513 -624 684 0
-1513 -624 -523 0
-1513 -624 -579 0
-1513 -464 0
-1513 -629 691 0
-1513 -629 -530 0
-1513 -629 -585 0
-1513 -471 0
-1513 664 0
-1514 501 0
-1514 615 616 0
-1514 -619 677 0
-1514 -619 -517 0
-1514 -619 -573 0
-1514 -619 -574 0
-1514 -458 0
-1514 -624 684 0
-1514 -624 -524 0
-1514 -624 -579 0
-1514 -624 -580 0
-1514 -465 0
-1514 -629 691 0
-1514 -629 -531 0
-1514 -629 -585 0
-1514 -629 -586 0
-1514 -472 0
-1514 665 0
-1515 501 0
-1515 615 616 617 0
-1515 -619 677 0
-1515 -619 -518 0
-1515 -619 -574 0
-1515 -619 -575 0
-1515 -459 0
-1515 -624 684 0
-1515 -624 -525 0
-1515 -624 -580 0
-1515 -624 -581 0
-1515 -466 0
-1515 -629 691 0
-1515 -629 -532 0
-1515 -629 -586 0
-1515 -629 -587 0
-1515 -473 0
-1515 666 0
-1516 501 0
-1516 616 617 618 0
-1516 -619 677 0
-1516 -619 -519 0
-1516 -619 -575 0
-1516 -619 -576 0
-1516 -460 0
-1516 -624 684 0
-1516 -624 -526 0
-1516 -624 -581 0
-1516 -624 -582 0
-1516 -467 0
-1516 -629 691 0
-1516 -629 -533 0
-1516 -629 -587 0
-1516 -629 -588 0
-1516 -474 0
-1516 667 0
-1517 501 0
-1517 617 618 0
-1517 -619 677 0
-1517 -619 -520 0
-1517 -619 -576 0
-1517 -619 -577 0
-1517 -461 0
-1517 -624 684 0
-1517 -624 -527 0
-1517 -624 -582 0
-1517 -624 -583 0
-1517 -468 0
-1517 -629 691 0
-1517 -629 -534 0
-1517 -629 -588 0
-1517 -629 -589 0
-1517 -475 0
-1517 668 0
-1518 501 0
-1518 618 0
-1518 -619 677 0
-1518 -619 -521 0
-1518 -619 -577 0
-1518 -462 0
-1518 -624 684 0
-1518 -624 -528 0
-1518 -624 -583 0
-1518 -469 0
-1518 -629 691 0
-1518 -629 -535 0
-1518 -629 -589 0
-1518 -476 0
-1518 669 0
-1519 560 0
-1519 -509 0
-1519 -450 0
-1519 -567 0
-1519 -620 0
-1519 723 0
-1519 729 0
-1520 560 0
-1520 -510 0
-1520 -451 0
-1520 -567 0
-1520 -568 0
-1520 -620 0
-1520 -621 0
-1520 724 0
-1520 729 0
-1521 560 0
-1521 -511 0
-1521 -452 0
-1521 -568 0
-1521 -569 0
-1521 -620 0
-1521 -621 0
-1521 -622 0
-1521 725 0
-1521 729 0
-1522 560 0
-1522 -512 0
-1522 -453 0
-1522 -569 0
-1522 -570 0
-1522 -621 0
-1522 -622 0
-1522 -623 0
-1522 726 0
-1522 729 0
-1523 560 0
-1523 -513 0
-1523 -454 0
-1523 -570 0
-1523 -571 0
-1523 -622 0
-1523 -623 0
-1523 727 0
-1523 729 0
-1524 560 0
-1524 -514 0
-1524 -455 0
-1524 -571 0
-1524 -623 0
-1524 728 0
-1524 729 0
-1525 560 0
-1525 443 0
-1525 -449 736 0
-1525 -449 -573 0
-1525 -449 -625 0
-1525 -516 0
-1525 -456 743 0
-1525 -456 -579 0
-1525 -456 -630 0
-1525 -523 0
-1525 -463 750 0
-1525 -463 -585 0
-1525 -463 -635 0
-1525 -530 0
-1525 723 0
-1526 560 0
-1526 444 0
-1526 -449 736 0
-1526 -449 -573 0
-1526 -449 -574 0
-1526 -449 -625 0
-1526 -449 -626 0
-1526 -517 0
-1526 -456 743 0
-1526 -456 -579 0
-1526 -456 -580 0
-1526 -456 -630 0
-1526 -456 -631 0
-1526 -524 0
-1526 -463 750 0
-1526 -463 -585 0
-1526 -463 -586 0
-1526 -463 -635 0
-1526 -463 -636 0
-1526 -531 0
-1526 724 0
-1527 560 0
-1527 445 0
-1527 -449 736 0
-1527 -449 -574 0
-1527 -449 -575 0
-1527 -449 -625 0
-1527 -449 -626 0
-1527 -449 -627 0
-1527 -518 0
-1527 -456 743 0
-1527 -456 -580 0
-1527 -456 -581 0
-1527 -456 -630 0
-1527 -456 -631 0
-1527 -456 -632 0
-1527 -525 0
-1527 -463 750 0
-1527 -463 -586 0
-1527 -463 -587 0
-1527 -463 -635 0
-1527 -463 -636 0
-1527 -463 -637 0
-1527 -532 0
-1527 725 0
-1528 560 0
-1528 446 0
-1528 -449 736 0
-1528 -449 -575 0
-1528 -449 -576 0
-1528 -449 -626 0
-1528 -449 -627 0
-1528 -449 -628 0
-1528 -519 0
-1528 -456 743 0
-1528 -456 -581 0
-1528 -456 -582 0
-1528 -456 -631 0
-1528 -456 -632 0
-1528 -456 -633 0
-1528 -526 0
-1528 -463 750 0
-1528 -463 -587 0
-1528 -463 -588 0
-1528 -463 -636 0
-1528 -463 -637 0
-1528 -463 -638 0
-1528 -533 0
-1528 726 0
-1529 560 0
-1529 447 0
-1529 -449 736 0
-1529 -449 -576 0
-1529 -449 -577 0
-1529 -449 -627 0
-1529 -449 -628 0
-1529 -520 0
-1529 -456 743 0
-1529 -456 -582 0
-1529 -456 -583 0
-1529 -456 -632 0
-1529 -456 -633 0
-1529 -527 0
-1529 -463 750 0
-1529 -463 -588 0
-1529 -463 -589 0
-1529 -463 -637 0
-1529 -463 -638 0
-1529 -534 0
-1529 727 0
-1530 560 0
-1530 448 0
-1530 -449 736 0
-1530 -449 -577 0
-1530 -449 -628 0
-1530 -521 0
-1530 -456 743 0
-1530 -456 -583 0
-1530 -456 -633 0
-1530 -528 0
-1530 -463 750 0
-1530 -463 -589 0
-1530 -463 -638 0
-1530 -535 0
-1530 728 0
-1531 560 0
-1531 561 0
-1531 -566 736 0
-1531 -566 -457 0
-1531 -566 -625 0
-1531 -516 0
-1531 -572 743 0
-1531 -572 -464 0
-1531 -572 -630 0
-1531 -523 0
-1531 -578 750 0
-1531 -578 -471 0
-1531 -578 -635 0
-1531 -530 0
-1531 723 0
-1532 560 0
-1532 561 562 0
-1532 -566 736 0
-1532 -566 -458 0
-1532 -566 -625 0
-1532 -566 -626 0
-1532 -517 0
-1532 -572 743 0
-1532 -572 -465 0
-1532 -572 -630 0
-1532 -572 -631 0
-1532 -524 0
-1532 -578 750 0
-1532 -578 -472 0
-1532 -578 -635 0
-1532 -578 -636 0
-1532 -531 0
-1532 724 0
-1533 560 0
-1533 562 563 0
-1533 -566 736 0
-1533 -566 -459 0
-1533 -566 -625 0
-1533 -566 -626 0
-1533 -566 -627 0
-1533 -518 0
-1533 -572 743 0
-1533 -572 -466 0
-1533 -572 -630 0
-1533 -572 -631 0
-1533 -572 -632 0
-1533 -525 0
-1533 -578 750 0
-1533 -578 -473 0
-1533 -578 -635 0
-1533 -578 -636 0
-1533 -578 -637 0
-1533 -532 0
-1533 725 0
-1534 560 0
-1534 563 564 0
-1534 -566 736 0
-1534 -566 -460 0
-1534 -566 -626 0
-1534 -566 -627 0
-1534 -566 -628 0
-1534 -519 0
-1534 -572 743 0
-1534 -572 -467 0
-1534 -572 -631 0
-1534 -572 -632 0
-1534 -572 -633 0
-1534 -526 0
-1534 -578 750 0
-1534 -578 -474 0
-1534 -578 -636 0
-1534 -578 -637 0
-1534 -578 -638 0
-1534 -533 0
-1534 726 0
-1535 560 0
-1535 564 565 0
-1535 -566 736 0
-1535 -566 -461 0
-1535 -566 -627 0
-1535 -566 -628 0
-1535 -520 0
-1535 -572 743 0
-1535 -572 -468 0
-1535 -572 -632 0
-1535 -572 -633 0
-1535 -527 0
-1535 -578 750 0
-1535 -578 -475 0
-1535 -578 -637 0
-1535 -578 -638 0
-1535 -534 0
-1535 727 0
-1536 560 0
-1536 565 0
-1536 -566 736 0
-1536 -566 -462 0
-1536 -566 -628 0
-1536 -521 0
-1536 -572 743 0
-1536 -572 -469 0
-1536 -572 -633 0
-1536 -528 0
-1536 -578 750 0
-1536 -578 -476 0
-1536 -578 -638 0
-1536 -535 0
-1536 728 0
-1537 560 0
-1537 615 0
-1537 -619 736 0
-1537 -619 -457 0
-1537 -619 -573 0
-1537 -516 0
-1537 -624 743 0
-1537 -624 -464 0
-1537 -624 -579 0
-1537 -523 0
-1537 -629 750 0
-1537 -629 -471 0
-1537 -629 -585 0
-1537 -530 0
-1537 723 0
-1538 560 0
-1538 615 616 0
-1538 -619 736 0
-1538 -619 -458 0
-1538 -619 -573 0
-1538 -619 -574 0
-1538 -517 0
-1538 -624 743 0
-1538 -624 -465 0
-1538 -624 -579 0
-1538 -624 -580 0
-1538 -524 0
-1538 -629 750 0
-1538 -629 -472 0
-1538 -629 -585 0
-1538 -629 -586 0
-1538 -531 0
-1538 724 0
-1539 560 0
-1539 615 616 617 0
-1539 -619 736 0
-1539 -619 -459 0
-1539 -619 -574 0
-1539 -619 -575 0
-1539 -518 0
-1539 -624 743 0
-1539 -624 -466 0
-1539 -624 -580 0
-1539 -624 -581 0
-1539 -525 0
-1539 -629 750 0
-1539 -629 -473 0
-1539 -629 -586 0
-1539 -629 -587 0
-1539 -532 0
-1539 725 0
-1540 560 0
-1540 616 617 618 0
-1540 -619 736 0
-1540 -619 -460 0
-1540 -619 -575 0
-1540 -619 -576 0
-1540 -519 0
-1540 -624 743 0
-1540 -624 -467 0
-1540 -624 -581 0
-1540 -624 -582 0
-1540 -526 0
-1540 -629 750 0
-1540 -629 -474 0
-1540 -629 -587 0
-1540 -629 -588 0
-1540 -533 0
-1540 726 0
-1541 560 0
-1541 617 618 0
-1541 -619 736 0
-1541 -619 -461 0
-1541 -619 -576 0
-1541 -619 -577 0
-1541 -520 0
-1541 -624 743 0
-1541 -624 -468 0
-1541 -624 -582 0
-1541 -624 -583 0
-1541 -527 0
-1541 -629 750 0
-1541 -629 -475 0
-1541 -629 -588 0
-1541 -629 -589 0
-1541 -534 0
-1541 727 0
-1542 560 0
-1542 618 0
-1542 -619 736 0
-1542 -619 -462 0
-1542 -619 -577 0
-1542 -521 0
-1542 -624 743 0
-1542 -624 -469 0
-1542 -624 -583 0
-1542 -528 0
-1542 -629 750 0
-1542 -629 -476 0
-1542 -629 -589 0
-1542 -535 0
-1542 728 0
-1543 614 0
-1543 -567 0
-1543 -450 0
-1543 -451 0
-1543 -509 0
-1543 -510 0
-1543 -620 0
-1543 -621 0
-1543 782 0
-1543 787 0
-1544 614 0
-1544 -568 0
-1544 -451 0
-1544 -452 0
-1544 -510 0
-1544 -511 0
-1544 -620 0
-1544 -621 0
-1544 -622 0
-1544 783 0
-1544 787 0
-1545 614 0
-1545 -569 0
-1545 -452 0
-1545 -453 0
-1545 -511 0
-1545 -512 0
-1545 -620 0
-1545 -621 0
-1545 -622 0
-1545 -623 0
-1545 784 0
-1545 787 0
-1546 614 0
-1546 -570 0
-1546 -453 0
-1546 -454 0
-1546 -512 0
-1546 -513 0
-1546 -621 0
-1546 -622 0
-1546 -623 0
-1546 785 0
-1546 787 0
-1547 614 0
-1547 -571 0
-1547 -454 0
-1547 -455 0
-1547 -513 0
-1547 -514 0
-1547 -622 0
-1547 -623 0
-1547 786 0
-1547 787 0
-1548 614 0
-1548 443 444 0
-1548 -449 793 0
-1548 -449 -516 0
-1548 -449 -517 0
-1548 -449 -625 0
-1548 -449 -626 0
-1548 -573 0
-1548 -456 799 0
-1548 -456 -523 0
-1548 -456 -524 0
-1548 -456 -630 0
-1548 -456 -631 0
-1548 -579 0
-1548 -463 805 0
-1548 -463 -530 0
-1548 -463 -531 0
-1548 -463 -635 0
-1548 -463 -636 0
-1548 -585 0
-1548 782 0
-1549 614 0
-1549 444 445 0
-1549 -449 793 0
-1549 -449 -517 0
-1549 -449 -518 0
-1549 -449 -625 0
-1549 -449 -626 0
-1549 -449 -627 0
-1549 -574 0
-1549 -456 799 0
-1549 -456 -524 0
-1549 -456 -525 0
-1549 -456 -630 0
-1549 -456 -631 0
-1549 -456 -632 0
-1549 -580 0
-1549 -463 805 0
-1549 -463 -531 0
-1549 -463 -532 0
-1549 -463 -635 0
-1549 -463 -636 0
-1549 -463 -637 0
-1549 -586 0
-1549 783 0
-1550 614 0
-1550 445 446 0
-1550 -449 793 0
-1550 -449 -518 0
-1550 -449 -519 0
-1550 -449 -625 0
-1550 -449 -626 0
-1550 -449 -627 0
-1550 -449 -628 0
-1550 -575 0
-1550 -456 799 0
-1550 -456 -525 0
-1550 -456 -526 0
-1550 -456 -630 0
-1550 -456 -631 0
-1550 -456 -632 0
-1550 -456 -633 0
-1550 -581 0
-1550 -463 805 0
-1550 -463 -532 0
-1550 -463 -533 0
-1550 -463 -635 0
-1550 -463 -636 0
-1550 -463 -637 0
-1550 -463 -638 0
-1550 -587 0
-1550 784 0
-1551 614 0
-1551 446 447 0
-1551 -449 793 0
-1551 -449 -519 0
-1551 -449 -520 0
-1551 -449 -626 0
-1551 -449 -627 0
-1551 -449 -628 0
-1551 -576 0
-1551 -456 799 0
-1551 -456 -526 0
-1551 -456 -527 0
-1551 -456 -631 0
-1551 -456 -632 0
-1551 -456 -633 0
-1551 -582 0
-1551 -463 805 0
-1551 -463 -533 0
-1551 -463 -534 0
-1551 -463 -636 0
-1551 -463 -637 0
-1551 -463 -638 0
-1551 -588 0
-1551 785 0
-1552 614 0
-1552 447 448 0
-1552 -449 793 0
-1552 -449 -520 0
-1552 -449 -521 0
-1552 -449 -627 0
-1552 -449 -628 0
-1552 -577 0
-1552 -456 799 0
-1552 -456 -527 0
-1552 -456 -528 0
-1552 -456 -632 0
-1552 -456 -633 0
-1552 -583 0
-1552 -463 805 0
-1552 -463 -534 0
-1552 -463 -535 0
-1552 -463 -637 0
-1552 -463 -638 0
-1552 -589 0
-1552 786 0
-1553 614 0
-1553 502 503 0
-1553 -508 793 0
-1553 -508 -457 0
-1553 -508 -458 0
-1553 -508 -625 0
-1553 -508 -626 0
-1553 -573 0
-1553 -515 799 0
-1553 -515 -464 0
-1553 -515 -465 0
-1553 -515 -630 0
-1553 -515 -631 0
-1553 -579 0
-1553 -522 805 0
-1553 -522 -471 0
-1553 -522 -472 0
-1553 -522 -635 0
-1553 -522 -636 0
-1553 -585 0
-1553 782 0
-1554 614 0
-1554 503 504 0
-1554 -508 793 0
-1554 -508 -458 0
-1554 -508 -459 0
-1554 -508 -625 0
-1554 -508 -626 0
-1554 -508 -627 0
-1554 -574 0
-1554 -515 799 0
-1554 -515 -465 0
-1554 -515 -466 0
-1554 -515 -630 0
-1554 -515 -631 0
-1554 -515 -632 0
-1554 -580 0
-1554 -522 805 0
-1554 -522 -472 0
-1554 -522 -473 0
-1554 -522 -635 0
-1554 -522 -636 0
-1554 -522 -637 0
-1554 -586 0
-1554 783 0
-1555 614 0
-1555 504 505 0
-1555 -508 793 0
-1555 -508 -459 0
-1555 -508 -460 0
-1555 -508 -625 0
-1555 -508 -626 0
-1555 -508 -627 0
-1555 -508 -628 0
-1555 -575 0
-1555 -515 799 0
-1555 -515 -466 0
-1555 -515 -467 0
-1555 -515 -630 0
-1555 -515 -631 0
-1555 -515 -632 0
-1555 -515 -633 0
-1555 -581 0
-1555 -522 805 0
-1555 -522 -473 0
-1555 -522 -474 0
-1555 -522 -635 0
-1555 -522 -636 0
-1555 -522 -637 0
-1555 -522 -638 0
-1555 -587 0
-1555 784 0
-1556 614 0
-1556 505 506 0
-1556 -508 793 0
-1556 -508 -460 0
-1556 -508 -461 0
-1556 -508 -626 0
-1556 -508 -627 0
-1556 -508 -628 0
-1556 -576 0
-1556 -515 799 0
-1556 -515 -467 0
-1556 -515 -468 0
-1556 -515 -631 0
-1556 -515 -632 0
-1556 -515 -633 0
-1556 -582 0
-1556 -522 805 0
-1556 -522 -474 0
-1556 -522 -475 0
-1556 -522 -636 0
-1556 -522 -637 0
-1556 -522 -638 0
-1556 -588 0
-1556 785 0
-1557 614 0
-1557 506 507 0
-1557 -508 793 0
-1557 -508 -461 0
-1557 -508 -462 0
-1557 -508 -627 0
-1557 -508 -628 0
-1557 -577 0
-1557 -515 799 0
-1557 -515 -468 0
-1557 -515 -469 0
-1557 -515 -632 0
-1557 -515 -633 0
-1557 -583 0
-1557 -522 805 0
-1557 -522 -475 0
-1557 -522 -476 0
-1557 -522 -637 0
-1557 -522 -638 0
-1557 -589 0
-1557 786 0
-1558 614 0
-1558 615 616 0
-1558 -619 793 0
-1558 -619 -457 0
-1558 -619 -458 0
-1558 -619 -516 0
-1558 -619 -517 0
-1558 -573 0
-1558 -624 799 0
-1558 -624 -464 0
-1558 -624 -465 0
-1558 -624 -523 0
-1558 -624 -524 0
-1558 -579 0
-1558 -629 805 0
-1558 -629 -471 0
-1558 -629 -472 0
-1558 -629 -530 0
-1558 -629 -531 0
-1558 -585 0
-1558 782 0
-1559 614 0
-1559 615 616 617 0
-1559 -619 793 0
-1559 -619 -458 0
-1559 -619 -459 0
-1559 -619 -517 0
-1559 -619 -518 0
-1559 -574 0
-1559 -624 799 0
-1559 -624 -465 0
-1559 -624 -466 0
-1559 -624 -524 0
-1559 -624 -525 0
-1559 -580 0
-1559 -629 805 0
-1559 -629 -472 0
-1559 -629 -473 0
-1559 -629 -531 0
-1559 -629 -532 0
-1559 -586 0
-1559 783 0
-1560 614 0
-1560 615 616 617 618 0
-1560 -619 793 0
-1560 -619 -459 0
-1560 -619 -460 0
-1560 -619 -518 0
-1560 -619 -519 0
-1560 -575 0
-1560 -624 799 0
-1560 -624 -466 0
-1560 -624 -467 0
-1560 -624 -525 0
-1560 -624 -526 0
-1560 -581 0
-1560 -629 805 0
-1560 -629 -473 0
-1560 -629 -474 0
-1560 -629 -532 0
-1560 -629 -533 0
-1560 -587 0
-1560 784 0
-1561 614 0
-1561 616 617 618 0
-1561 -619 793 0
-1561 -619 -460 0
-1561 -619 -461 0
-1561 -619 -519 0
-1561 -619 -520 0
-1561 -576 0
-1561 -624 799 0
-1561 -624 -467 0
-1561 -624 -468 0
-1561 -624 -526 0
-1561 -624 -527 0
-1561 -582 0
-1561 -629 805 0
-1561 -629 -474 0
-1561 -629 -475 0
-1561 -629 -533 0
-1561 -629 -534 0
-1561 -588 0
-1561 785 0
-1562 614 0
-1562 617 618 0
-1562 -619 793 0
-1562 -619 -461 0
-1562 -619 -462 0
-1562 -619 -520 0
-1562 -619 -521 0
-1562 -577 0
-1562 -624 799 0
-1562 -624 -468 0
-1562 -624 -469 0
-1562 -624 -527 0
-1562 -624 -528 0
-1562 -583 0
-1562 -629 805 0
-1562 -629 -475 0
-1562 -629 -476 0
-1562 -629 -534 0
-1562 -629 -535 0
-1562 -589 0
-1562 786 0
-1563 663 0
-1563 -620 0
-1563 -450 0
-1563 -451 0
-1563 -452 0
-1563 -509 0
-1563 -510 0
-1563 -511 0
-1563 -567 0
-1563 -568 0
-1563 -569 0
-1563 836 0
-1563 840 0
-1564 663 0
-1564 -621 0
-1564 -451 0
-1564 -452 0
-1564 -453 0
-1564 -510 0
-1564 -511 0
-1564 -512 0
-1564 -567 0
-1564 -568 0
-1564 -569 0
-1564 -570 0
-1564 837 0
-1564 840 0
-1565 663 0
-1565 -622 0
-1565 -452 0
-1565 -453 0
-1565 -454 0
-1565 -511 0
-1565 -512 0
-1565 -513 0
-1565 -568 0
-1565 -569 0
-1565 -570 0
-1565 -571 0
-1565 838 0
-1565 840 0
-1566 663 0
-1566 -623 0
-1566 -453 0
-1566 -454 0
-1566 -455 0
-1566 -512 0
-1566 -513 0
-1566 -514 0
-1566 -569 0
-1566 -570 0
-1566 -571 0
-1566 839 0
-1566 840 0
-1567 663 0
-1567 443 444 445 0
-1567 -449 845 0
-1567 -449 -516 0
-1567 -449 -517 0
-1567 -449 -518 0
-1567 -449 -573 0
-1567 -449 -574 0
-1567 -449 -575 0
-1567 -625 0
-1567 -456 850 0
-1567 -456 -523 0
-1567 -456 -524 0
-1567 -456 -525 0
-1567 -456 -579 0
-1567 -456 -580 0
-1567 -456 -581 0
-1567 -630 0
-1567 -463 855 0
-1567 -463 -530 0
-1567 -463 -531 0
-1567 -463 -532 0
-1567 -463 -585 0
-1567 -463 -586 0
-1567 -463 -587 0
-1567 -635 0
-1567 836 0
-1568 663 0
-1568 444 445 446 0
-1568 -449 845 0
-1568 -449 -517 0
-1568 -449 -518 0
-1568 -449 -519 0
-1568 -449 -573 0
-1568 -449 -574 0
-1568 -449 -575 0
-1568 -449 -576 0
-1568 -626 0
-1568 -456 850 0
-1568 -456 -524 0
-1568 -456 -525 0
-1568 -456 -526 0
-1568 -456 -579 0
-1568 -456 -580 0
-1568 -456 -581 0
-1568 -456 -582 0
-1568 -631 0
-1568 -463 855 0
-1568 -463 -531 0
-1568 -463 -532 0
-1568 -463 -533 0
-1568 -463 -585 0
-1568 -463 -586 0
-1568 -463 -587 0
-1568 -463 -588 0
-1568 -636 0
-1568 837 0
-1569 663 0
-1569 445 446 447 0
-1569 -449 845 0
-1569 -449 -518 0
-1569 -449 -519 0
-1569 -449 -520 0
-1569 -449 -574 0
-1569 -449 -575 0
-1569 -449 -576 0
-1569 -449 -577 0
-1569 -627 0
-1569 -456 850 0
-1569 -456 -525 0
-1569 -456 -526 0
-1569 -456 -527 0
-1569 -456 -580 0
-1569 -456 -581 0
-1569 -456 -582 0
-1569 -456 -583 0
-1569 -632 0
-1569 -463 855 0
-1569 -463 -532 0
-1569 -463 -533 0
-1569 -463 -534 0
-1569 -463 -586 0
-1569 -463 -587 0
-1569 -463 -588 0
-1569 -463 -589 0
-1569 -637 0
-1569 838 0
-1570 663 0
-1570 446 447 448 0
-1570 -449 845 0
-1570 -449 -519 0
-1570 -449 -520 0
-1570 -449 -521 0
-1570 -449 -575 0
-1570 -449 -576 0
-1570 -449 -577 0
-1570 -628 0
-1570 -456 850 0
-1570 -456 -526 0
-1570 -456 -527 0
-1570 -456 -528 0
-1570 -456 -581 0
-1570 -456 -582 0
-1570 -456 -583 0
-1570 -633 0
-1570 -463 855 0
-1570 -463 -533 0
-1570 -463 -534 0
-1570 -463 -535 0
-1570 -463 -587 0
-1570 -463 -588 0
-1570 -463 -589 0
-1570 -638 0
-1570 839 0
-1571 663 0
-1571 502 503 504 0
-1571 -508 845 0
-1571 -508 -457 0
-1571 -508 -458 0
-1571 -508 -459 0
-1571 -508 -573 0
-1571 -508 -574 0
-1571 -508 -575 0
-1571 -625 0
-1571 -515 850 0
-1571 -515 -464 0
-1571 -515 -465 0
-1571 -515 -466 0
-1571 -515 -579 0
-1571 -515 -580 0
-1571 -515 -581 0
-1571 -630 0
-1571 -522 855 0
-1571 -522 -471 0
-1571 -522 -472 0
-1571 -522 -473 0
-1571 -522 -585 0
-1571 -522 -586 0
-1571 -522 -587 0
-1571 -635 0
-1571 836 0
-1572 663 0
-1572 503 504 505 0
-1572 -508 845 0
-1572 -508 -458 0
-1572 -508 -459 0
-1572 -508 -460 0
-1572 -508 -573 0
-1572 -508 -574 0
-1572 -508 -575 0
-1572 -508 -576 0
-1572 -626 0
-1572 -515 850 0
-1572 -515 -465 0
-1572 -515 -466 0
-1572 -515 -467 0
-1572 -515 -579 0
-1572 -515 -580 0
-1572 -515 -581 0
-1572 -515 -582 0
-1572 -631 0
-1572 -522 855 0
-1572 -522 -472 0
-1572 -522 -473 0
-1572 -522 -474 0
-1572 -522 -585 0
-1572 -522 -586 0
-1572 -522 -587 0
-1572 -522 -588 0
-1572 -636 0
-1572 837 0
-1573 663 0
-1573 504 505 506 0
-1573 -508 845 0
-1573 -508 -459 0
-1573 -508 -460 0
-1573 -508 -461 0
-1573 -508 -574 0
-1573 -508 -575 0
-1573 -508 -576 0
-1573 -508 -577 0
-1573 -627 0
-1573 -515 850 0
-1573 -515 -466 0
-1573 -515 -467 0
-1573 -515 -468 0
-1573 -515 -580 0
-1573 -515 -581 0
-1573 -515 -582 0
-1573 -515 -583 0
-1573 -632 0
-1573 -522 855 0
-1573 -522 -473 0
-1573 -522 -474 0
-1573 -522 -475 0
-1573 -522 -586 0
-1573 -522 -587 0
-1573 -522 -588 0
-1573 -522 -589 0
-1573 -637 0
-1573 838 0
-1574 663 0
-1574 505 506 507 0
-1574 -508 845 0
-1574 -508 -460 0
-1574 -508 -461 0
-1574 -508 -462 0
-1574 -508 -575 0
-1574 -508 -576 0
-1574 -508 -577 0
-1574 -628 0
-1574 -515 850 0
-1574 -515 -467 0
-1574 -515 -468 0
-1574 -515 -469 0
-1574 -515 -581 0
-1574 -515 -582 0
-1574 -515 -583 0
-1574 -633 0
-1574 -522 855 0
-1574 -522 -474 0
-1574 -522 -475 0
-1574 -522 -476 0
-1574 -522 -587 0
-1574 -522 -588 0
-1574 -522 -589 0
-1574 -638 0
-1574 839 0
-1575 663 0
-1575 561 562 563 0
-1575 -566 845 0
-1575 -566 -457 0
-1575 -566 -458 0
-1575 -566 -459 0
-1575 -566 -516 0
-1575 -566 -517 0
-1575 -566 -518 0
-1575 -625 0
-1575 -572 850 0
-1575 -572 -464 0
-1575 -572 -465 0
-1575 -572 -466 0
-1575 -572 -523 0
-1575 -572 -524 0
-1575 -572 -525 0
-1575 -630 0
-1575 -578 855 0
-1575 -578 -471 0
-1575 -578 -472 0
-1575 -578 -473 0
-1575 -578 -530 0
-1575 -578 -531 0
-1575 -578 -532 0
-1575 -635 0
-1575 836 0
-1576 663 0
-1576 561 562 563 564 0
-1576 -566 845 0
-1576 -566 -458 0
-1576 -566 -459 0
-1576 -566 -460 0
-1576 -566 -517 0
-1576 -566 -518 0
-1576 -566 -519 0
-1576 -626 0
-1576 -572 850 0
-1576 -572 -465 0
-1576 -572 -466 0
-1576 -572 -467 0
-1576 -572 -524 0
-1576 -572 -525 0
-1576 -572 -526 0
-1576 -631 0
-1576 -578 855 0
-1576 -578 -472 0
-1576 -578 -473 0
-1576 -578 -474 0
-1576 -578 -531 0
-1576 -578 -532 0
-1576 -578 -533 0
-1576 -636 0
-1576 837 0
-1577 663 0
-1577 562 563 564 565 0
-1577 -566 845 0
-1577 -566 -459 0
-1577 -566 -460 0
-1577 -566 -461 0
-1577 -566 -518 0
-1577 -566 -519 0
-1577 -566 -520 0
-1577 -627 0
-1577 -572 850 0
-1577 -572 -466 0
-1577 -572 -467 0
-1577 -572 -468 0
-1577 -572 -525 0
-1577 -572 -526 0
-1577 -572 -527 0
-1577 -632 0
-1577 -578 855 0
-1577 -578 -473 0
-1577 -578 -474 0
-1577 -578 -475 0
-1577 -578 -532 0
-1577 -578 -533 0
-1577 -578 -534 0
-1577 -637 0
-1577 838 0
-1578 663 0
-1578 563 564 565 0
-1578 -566 845 0
-1578 -566 -460 0
-1578 -566 -461 0
-1578 -566 -462 0
-1578 -566 -519 0
-1578 -566 -520 0
-1578 -566 -521 0
-1578 -628 0
-1578 -572 850 0
-1578 -572 -467 0
-1578 -572 -468 0
-1578 -572 -469 0
-1578 -572 -526 0
-1578 -572 -527 0
-1578 -572 -528 0
-1578 -633 0
-1578 -578 855 0
-1578 -578 -474 0
-1578 -578 -475 0
-1578 -578 -476 0
-1578 -578 -533 0
-1578 -578 -534 0
-1578 -578 -535 0
-1578 -638 0
-1578 839 0
-1579 722 0
-1579 -671 0
-1579 -730 0
-1579 -788 0
-1579 -841 0
-1579 885 0
-1579 891 0
-1580 722 0
-1580 -672 0
-1580 -731 0
-1580 -788 0
-1580 -789 0
-1580 -841 0
-1580 -842 0
-1580 886 0
-1580 891 0
-1581 722 0
-1581 -673 0
-1581 -732 0
-1581 -789 0
-1581 -790 0
-1581 -841 0
-1581 -842 0
-1581 -843 0
-1581 887 0
-1581 891 0
-1582 722 0
-1582 -674 0
-1582 -733 0
-1582 -790 0
-1582 -791 0
-1582 -842 0
-1582 -843 0
-1582 -844 0
-1582 888 0
-1582 891 0
-1583 722 0
-1583 -675 0
-1583 -734 0
-1583 -791 0
-1583 -792 0
-1583 -843 0
-1583 -844 0
-1583 889 0
-1583 891 0
-1584 722 0
-1584 -676 0
-1584 -735 0
-1584 -792 0
-1584 -844 0
-1584 890 0
-1584 891 0
-1585 722 0
-1585 723 0
-1585 -729 898 0
-1585 -729 -794 0
-1585 -729 -846 0
-1585 -678 0
-1585 -736 905 0
-1585 -736 -800 0
-1585 -736 -851 0
-1585 -685 0
-1585 -743 912 0
-1585 -743 -806 0
-1585 -743 -856 0
-1585 -692 0
-1585 885 0
-1586 722 0
-1586 724 0
-1586 -729 898 0
-1586 -729 -794 0
-1586 -729 -795 0
-1586 -729 -846 0
-1586 -729 -847 0
-1586 -679 0
-1586 -736 905 0
-1586 -736 -800 0
-1586 -736 -801 0
-1586 -736 -851 0
-1586 -736 -852 0
-1586 -686 0
-1586 -743 912 0
-1586 -743 -806 0
-1586 -743 -807 0
-1586 -743 -856 0
-1586 -743 -857 0
-1586 -693 0
-1586 886 0
-1587 722 0
-1587 725 0
-1587 -729 898 0
-1587 -729 -795 0
-1587 -729 -796 0
-1587 -729 -846 0
-1587 -729 -847 0
-1587 -729 -848 0
-1587 -680 0
-1587 -736 905 0
-1587 -736 -801 0
-1587 -736 -802 0
-1587 -736 -851 0
-1587 -736 -852 0
-1587 -736 -853 0
-1587 -687 0
-1587 -743 912 0
-1587 -743 -807 0
-1587 -743 -808 0
-1587 -743 -856 0
-1587 -743 -857 0
-1587 -743 -858 0
-1587 -694 0
-1587 887 0
-1588 722 0
-1588 726 0
-1588 -729 898 0
-1588 -729 -796 0
-1588 -729 -797 0
-1588 -729 -847 0
-1588 -729 -848 0
-1588 -729 -849 0
-1588 -681 0
-1588 -736 905 0
-1588 -736 -802 0
-1588 -736 -803 0
-1588 -736 -852 0
-1588 -736 -853 0
-1588 -736 -854 0
-1588 -688 0
-1588 -743 912 0
-1588 -743 -808 0
-1588 -743 -809 0
-1588 -743 -857 0
-1588 -743 -858 0
-1588 -743 -859 0
-1588 -695 0
-1588 888 0
-1589 722 0
-1589 727 0
-1589 -729 898 0
-1589 -729 -797 0
-1589 -729 -798 0
-1589 -729 -848 0
-1589 -729 -849 0
-1589 -682 0
-1589 -736 905 0
-1589 -736 -803 0
-1589 -736 -804 0
-1589 -736 -853 0
-1589 -736 -854 0
-1589 -689 0
-1589 -743 912 0
-1589 -743 -809 0
-1589 -743 -810 0
-1589 -743 -858 0
-1589 -743 -859 0
-1589 -696 0
-1589 889 0
-1590 722 0
-1590 728 0
-1590 -729 898 0
-1590 -729 -798 0
-1590 -729 -849 0
-1590 -683 0
-1590 -736 905 0
-1590 -736 -804 0
-1590 -736 -854 0
-1590 -690 0
-1590 -743 912 0
-1590 -743 -810 0
-1590 -743 -859 0
-1590 -697 0
-1590 890 0
-1591 722 0
-1591 782 0
-1591 -787 898 0
-1591 -787 -737 0
-1591 -787 -846 0
-1591 -678 0
-1591 -793 905 0
-1591 -793 -744 0
-1591 -793 -851 0
-1591 -685 0
-1591 -799 912 0
-1591 -799 -751 0
-1591 -799 -856 0
-1591 -692 0
-1591 885 0
-1592 722 0
-1592 782 783 0
-1592 -787 898 0
-1592 -787 -738 0
-1592 -787 -846 0
-1592 -787 -847 0
-1592 -679 0
-1592 -793 905 0
-1592 -793 -745 0
-1592 -793 -851 0
-1592 -793 -852 0
-1592 -686 0
-1592 -799 912 0
-1592 -799 -752 0
-1592 -799 -856 0
-1592 -799 -857 0
-1592 -693 0
-1592 886 0
-1593 722 0
-1593 783 784 0
-1593 -787 898 0
-1593 -787 -739 0
-1593 -787 -846 0
-1593 -787 -847 0
-1593 -787 -848 0
-1593 -680 0
-1593 -793 905 0
-1593 -793 -746 0
-1593 -793 -851 0
-1593 -793 -852 0
-1593 -793 -853 0
-1593 -687 0
-1593 -799 912 0
-1593 -799 -753 0
-1593 -799 -856 0
-1593 -799 -857 0
-1593 -799 -858 0
-1593 -694 0
-1593 887 0
-1594 722 0
-1594 784 785 0
-1594 -787 898 0
-1594 -787 -740 0
-1594 -787 -847 0
-1594 -787 -848 0
-1594 -787 -849 0
-1594 -681 0
-1594 -793 905 0
-1594 -793 -747 0
-1594 -793 -852 0
-1594 -793 -853 0
-1594 -793 -854 0
-1594 -688 0
-1594 -799 912 0
-1594 -799 -754 0
-1594 -799 -857 0
-1594 -799 -858 0
-1594 -799 -859 0
-1594 -695 0
-1594 888 0
-1595 722 0
-1595 785 786 0
-1595 -787 898 0
-1595 -787 -741 0
-1595 -787 -848 0
-1595 -787 -849 0
-1595 -682 0
-1595 -793 905 0
-1595 -793 -748 0
-1595 -793 -853 0
-1595 -793 -854 0
-1595 -689 0
-1595 -799 912 0
-1595 -799 -755 0
-1595 -799 -858 0
-1595 -799 -859 0
-1595 -696 0
-1595 889 0
-1596 722 0
-1596 786 0
-1596 -787 898 0
-1596 -787 -742 0
-1596 -787 -849 0
-1596 -683 0
-1596 -793 905 0
-1596 -793 -749 0
-1596 -793 -854 0
-1596 -690 0
-1596 -799 912 0
-1596 -799 -756 0
-1596 -799 -859 0
-1596 -697 0
-1596 890 0
-1597 722 0
-1597 836 0
-1597 -840 898 0
-1597 -840 -737 0
-1597 -840 -794 0
-1597 -678 0
-1597 -845 905 0
-1597 -845 -744 0
-1597 -845 -800 0
-1597 -685 0
-1597 -850 912 0
-1597 -850 -751 0
-1597 -850 -806 0
-1597 -692 0
-1597 885 0
-1598 722 0
-1598 836 837 0
-1598 -840 898 0
-1598 -840 -738 0
-1598 -840 -794 0
-1598 -840 -795 0
-1598 -679 0
-1598 -845 905 0
-1598 -845 -745 0
-1598 -845 -800 0
-1598 -845 -801 0
-1598 -686 0
-1598 -850 912 0
-1598 -850 -752 0
-1598 -850 -806 0
-1598 -850 -807 0
-1598 -693 0
-1598 886 0
-1599 722 0
-1599 836 837 838 0
-1599 -840 898 0
-1599 -840 -739 0
-1599 -840 -795 0
-1599 -840 -796 0
-1599 -680 0
-1599 -845 905 0
-1599 -845 -746 0
-1599 -845 -801 0
-1599 -845 -802 0
-1599 -687 0
-1599 -850 912 0
-1599 -850 -753 0
-1599 -850 -807 0
-1599 -850 -808 0
-1599 -694 0
-1599 887 0
-1600 722 0
-1600 837 838 839 0
-1600 -840 898 0
-1600 -840 -740 0
-1600 -840 -796 0
-1600 -840 -797 0
-1600 -681 0
-1600 -845 905 0
-1600 -845 -747 0
-1600 -845 -802 0
-1600 -845 -803 0
-1600 -688 0
-1600 -850 912 0
-1600 -850 -754 0
-1600 -850 -808 0
-1600 -850 -809 0
-1600 -695 0
-1600 888 0
-1601 722 0
-1601 838 839 0
-1601 -840 898 0
-1601 -840 -741 0
-1601 -840 -797 0
-1601 -840 -798 0
-1601 -682 0
-1601 -845 905 0
-1601 -845 -748 0
-1601 -845 -803 0
-1601 -845 -804 0
-1601 -689 0
-1601 -850 912 0
-1601 -850 -755 0
-1601 -850 -809 0
-1601 -850 -810 0
-1601 -696 0
-1601 889 0
-1602 722 0
-1602 839 0
-1602 -840 898 0
-1602 -840 -742 0
-1602 -840 -798 0
-1602 -683 0
-1602 -845 905 0
-1602 -845 -749 0
-1602 -845 -804 0
-1602 -690 0
-1602 -850 912 0
-1602 -850 -756 0
-1602 -850 -810 0
-1602 -697 0
-1602 890 0
-1603 781 0
-1603 -730 0
-1603 -671 0
-1603 -788 0
-1603 -841 0
-1603 944 0
-1603 950 0
-1604 781 0
-1604 -731 0
-1604 -672 0
-1604 -788 0
-1604 -789 0
-1604 -841 0
-1604 -842 0
-1604 945 0
-1604 950 0
-1605 781 0
-1605 -732 0
-1605 -673 0
-1605 -789 0
-1605 -790 0
-1605 -841 0
-1605 -842 0
-1605 -843 0
-1605 946 0
-1605 950 0
-1606 781 0
-1606 -733 0
-1606 -674 0
-1606 -790 0
-1606 -791 0
-1606 -842 0
-1606 -843 0
-1606 -844 0
-1606 947 0
-1606 950 0
-1607 781 0
-1607 -734 0
-1607 -675 0
-1607 -791 0
-1607 -792 0
-1607 -843 0
-1607 -844 0
-1607 948 0
-1607 950 0
-1608 781 0
-1608 -735 0
-1608 -676 0
-1608 -792 0
-1608 -844 0
-1608 949 0
-1608 950 0
-1609 781 0
-1609 664 0
-1609 -670 957 0
-1609 -670 -794 0
-1609 -670 -846 0
-1609 -737 0
-1609 -677 964 0
-1609 -677 -800 0
-1609 -677 -851 0
-1609 -744 0
-1609 -684 971 0
-1609 -684 -806 0
-1609 -684 -856 0
-1609 -751 0
-1609 944 0
-1610 781 0
-1610 665 0
-1610 -670 957 0
-1610 -670 -794 0
-1610 -670 -795 0
-1610 -670 -846 0
-1610 -670 -847 0
-1610 -738 0
-1610 -677 964 0
-1610 -677 -800 0
-1610 -677 -801 0
-1610 -677 -851 0
-1610 -677 -852 0
-1610 -745 0
-1610 -684 971 0
-1610 -684 -806 0
-1610 -684 -807 0
-1610 -684 -856 0
-1610 -684 -857 0
-1610 -752 0
-1610 945 0
-1611 781 0
-1611 666 0
-1611 -670 957 0
-1611 -670 -795 0
-1611 -670 -796 0
-1611 -670 -846 0
-1611 -670 -847 0
-1611 -670 -848 0
-1611 -739 0
-1611 -677 964 0
-1611 -677 -801 0
-1611 -677 -802 0
-1611 -677 -851 0
-1611 -677 -852 0
-1611 -677 -853 0
-1611 -746 0
-1611 -684 971 0
-1611 -684 -807 0
-1611 -684 -808 0
-1611 -684 -856 0
-1611 -684 -857 0
-1611 -684 -858 0
-1611 -753 0
-1611 946 0
-1612 781 0
-1612 667 0
-1612 -670 957 0
-1612 -670 -796 0
-1612 -670 -797 0
-1612 -670 -847 0
-1612 -670 -848 0
-1612 -670 -849 0
-1612 -740 0
-1612 -677 964 0
-1612 -677 -802 0
-1612 -677 -803 0
-1612 -677 -852 0
-1612 -677 -853 0
-1612 -677 -854 0
-1612 -747 0
-1612 -684 971 0
-1612 -684 -808 0
-1612 -684 -809 0
-1612 -684 -857 0
-1612 -684 -858 0
-1612 -684 -859 0
-1612 -754 0
-1612 947 0
-1613 781 0
-1613 668 0
-1613 -670 957 0
-1613 -670 -797 0
-1613 -670 -798 0
-1613 -670 -848 0
-1613 -670 -849 0
-1613 -741 0
-1613 -677 964 0
-1613 -677 -803 0
-1613 -677 -804 0
-1613 -677 -853 0
-1613 -677 -854 0
-1613 -748 0
-1613 -684 971 0
-1613 -684 -809 0
-1613 -684 -810 0
-1613 -684 -858 0
-1613 -684 -859 0
-1613 -755 0
-1613 948 0
-1614 781 0
-1614 669 0
-1614 -670 957 0
-1614 -670 -798 0
-1614 -670 -849 0
-1614 -742 0
-1614 -677 964 0
-1614 -677 -804 0
-1614 -677 -854 0
-1614 -749 0
-1614 -684 971 0
-1614 -684 -810 0
-1614 -684 -859 0
-1614 -756 0
-1614 949 0
-1615 781 0
-1615 782 0
-1615 -787 957 0
-1615 -787 -678 0
-1615 -787 -846 0
-1615 -737 0
-1615 -793 964 0
-1615 -793 -685 0
-1615 -793 -851 0
-1615 -744 0
-1615 -799 971 0
-1615 -799 -692 0
-1615 -799 -856 0
-1615 -751 0
-1615 944 0
-1616 781 0
-1616 782 783 0
-1616 -787 957 0
-1616 -787 -679 0
-1616 -787 -846 0
-1616 -787 -847 0
-1616 -738 0
-1616 -793 964 0
-1616 -793 -686 0
-1616 -793 -851 0
-1616 -793 -852 0
-1616 -745 0
-1616 -799 971 0
-1616 -799 -693 0
-1616 -799 -856 0
-1616 -799 -857 0
-1616 -752 0
-1616 945 0
-1617 781 0
-1617 783 784 0
-1617 -787 957 0
-1617 -787 -680 0
-1617 -787 -846 0
-1617 -787 -847 0
-1617 -787 -848 0
-1617 -739 0
-1617 -793 964 0
-1617 -793 -687 0
-1617 -793 -851 0
-1617 -793 -852 0
-1617 -793 -853 0
-1617 -746 0
-1617 -799 971 0
-1617 -799 -694 0
-1617 -799 -856 0
-1617 -799 -857 0
-1617 -799 -858 0
-1617 -753 0
-1617 946 0
-1618 781 0
-1618 784 785 0
-1618 -787 957 0
-1618 -787 -681 0
-1618 -787 -847 0
-1618 -787 -848 0
-1618 -787 -849 0
-1618 -740 0
-1618 -793 964 0
-1618 -793 -688 0
-1618 -793 -852 0
-1618 -793 -853 0
-1618 -793 -854 0
-1618 -747 0
-1618 -799 971 0
-1618 -799 -695 0
-1618 -799 -857 0
-1618 -799 -858 0
-1618 -799 -859 0
-1618 -754 0
-1618 947 0
-1619 781 0
-1619 785 786 0
-1619 -787 957 0
-1619 -787 -682 0
-1619 -787 -848 0
-1619 -787 -849 0
-1619 -741 0
-1619 -793 964 0
-1619 -793 -689 0
-1619 -793 -853 0
-1619 -793 -854 0
-1619 -748 0
-1619 -799 971 0
-1619 -799 -696 0
-1619 -799 -858 0
-1619 -799 -859 0
-1619 -755 0
-1619 948 0
-1620 781 0
-1620 786 0
-1620 -787 957 0
-1620 -787 -683 0
-1620 -787 -849 0
-1620 -742 0
-1620 -793 964 0
-1620 -793 -690 0
-1620 -793 -854 0
-1620 -749 0
-1620 -799 971 0
-1620 -799 -697 0
-1620 -799 -859 0
-1620 -756 0
-1620 949 0
-1621 781 0
-1621 836 0
-1621 -840 957 0
-1621 -840 -678 0
-1621 -840 -794 0
-1621 -737 0
-1621 -845 964 0
-1621 -845 -685 0
-1621 -845 -800 0
-1621 -744 0
-1621 -850 971 0
-1621 -850 -692 0
-1621 -850 -806 0
-1621 -751 0
-1621 944 0
-1622 781 0
-1622 836 837 0
-1622 -840 957 0
-1622 -840 -679 0
-1622 -840 -794 0
-1622 -840 -795 0
-1622 -738 0
-1622 -845 964 0
-1622 -845 -686 0
-1622 -845 -800 0
-1622 -845 -801 0
-1622 -745 0
-1622 -850 971 0
-1622 -850 -693 0
-1622 -850 -806 0
-1622 -850 -807 0
-1622 -752 0
-1622 945 0
-1623 781 0
-1623 836 837 838 0
-1623 -840 957 0
-1623 -840 -680 0
-1623 -840 -795 0
-1623 -840 -796 0
-1623 -739 0
-1623 -845 964 0
-1623 -845 -687 0
-1623 -845 -801 0
-1623 -845 -802 0
-1623 -746 0
-1623 -850 971 0
-1623 -850 -694 0
-1623 -850 -807 0
-1623 -850 -808 0
-1623 -753 0
-1623 946 0
-1624 781 0
-1624 837 838 839 0
-1624 -840 957 0
-1624 -840 -681 0
-1624 -840 -796 0
-1624 -840 -797 0
-1624 -740 0
-1624 -845 964 0
-1624 -845 -688 0
-1624 -845 -802 0
-1624 -845 -803 0
-1624 -747 0
-1624 -850 971 0
-1624 -850 -695 0
-1624 -850 -808 0
-1624 -850 -809 0
-1624 -754 0
-1624 947 0
-1625 781 0
-1625 838 839 0
-1625 -840 957 0
-1625 -840 -682 0
-1625 -840 -797 0
-1625 -840 -798 0
-1625 -741 0
-1625 -845 964 0
-1625 -845 -689 0
-1625 -845 -803 0
-1625 -845 -804 0
-1625 -748 0
-1625 -850 971 0
-1625 -850 -696 0
-1625 -850 -809 0
-1625 -850 -810 0
-1625 -755 0
-1625 948 0
-1626 781 0
-1626 839 0
-1626 -840 957 0
-1626 -840 -683 0
-1626 -840 -798 0
-1626 -742 0
-1626 -845 964 0
-1626 -845 -690 0
-1626 -845 -804 0
-1626 -749 0
-1626 -850 971 0
-1626 -850 -697 0
-1626 -850 -810 0
-1626 -756 0
-1626 949 0
-1627 835 0
-1627 -788 0
-1627 -671 0
-1627 -672 0
-1627 -730 0
-1627 -731 0
-1627 -841 0
-1627 -842 0
-1627 1003 0
-1627 1008 0
-1628 835 0
-1628 -789 0
-1628 -672 0
-1628 -673 0
-1628 -731 0
-1628 -732 0
-1628 -841 0
-1628 -842 0
-1628 -843 0
-1628 1004 0
-1628 1008 0
-1629 835 0
-1629 -790 0
-1629 -673 0
-1629 -674 0
-1629 -732 0
-1629 -733 0
-1629 -841 0
-1629 -842 0
-1629 -843 0
-1629 -844 0
-1629 1005 0
-1629 1008 0
-1630 835 0
-1630 -791 0
-1630 -674 0
-1630 -675 0
-1630 -733 0
-1630 -734 0
-1630 -842 0
-1630 -843 0
-1630 -844 0
-1630 1006 0
-1630 1008 0
-1631 835 0
-1631 -792 0
-1631 -675 0
-1631 -676 0
-1631 -734 0
-1631 -735 0
-1631 -843 0
-1631 -844 0
-1631 1007 0
-1631 1008 0
-1632 835 0
-1632 664 665 0
-1632 -670 1014 0
-1632 -670 -737 0
-1632 -670 -738 0
-1632 -670 -846 0
-1632 -670 -847 0
-1632 -794 0
-1632 -677 1020 0
-1632 -677 -744 0
-1632 -677 -745 0
-1632 -677 -851 0
-1632 -677 -852 0
-1632 -800 0
-1632 -684 1026 0
-1632 -684 -751 0
-1632 -684 -752 0
-1632 -684 -856 0
-1632 -684 -857 0
-1632 -806 0
-1632 1003 0
-1633 835 0
-1633 665 666 0
-1633 -670 1014 0
-1633 -670 -738 0
-1633 -670 -739 0
-1633 -670 -846 0
-1633 -670 -847 0
-1633 -670 -848 0
-1633 -795 0
-1633 -677 1020 0
-1633 -677 -745 0
-1633 -677 -746 0
-1633 -677 -851 0
-1633 -677 -852 0
-1633 -677 -853 0
-1633 -801 0
-1633 -684 1026 0
-1633 -684 -752 0
-1633 -684 -753 0
-1633 -684 -856 0
-1633 -684 -857 0
-1633 -684 -858 0
-1633 -807 0
-1633 1004 0
-1634 835 0
-1634 666 667 0
-1634 -670 1014 0
-1634 -670 -739 0
-1634 -670 -740 0
-1634 -670 -846 0
-1634 -670 -847 0
-1634 -670 -848 0
-1634 -670 -849 0
-1634 -796 0
-1634 -677 1020 0
-1634 -677 -746 0
-1634 -677 -747 0
-1634 -677 -851 0
-1634 -677 -852 0
-1634 -677 -853 0
-1634 -677 -854 0
-1634 -802 0
-1634 -684 1026 0
-1634 -684 -753 0
-1634 -684 -754 0
-1634 -684 -856 0
-1634 -684 -857 0
-1634 -684 -858 0
-1634 -684 -859 0
-1634 -808 0
-1634 1005 0
-1635 835 0
-1635 667 668 0
-1635 -670 1014 0
-1635 -670 -740 0
-1635 -670 -741 0
-1635 -670 -847 0
-1635 -670 -848 0
-1635 -670 -849 0
-1635 -797 0
-1635 -677 1020 0
-1635 -677 -747 0
-1635 -677 -748 0
-1635 -677 -852 0
-1635 -677 -853 0
-1635 -677 -854 0
-1635 -803 0
-1635 -684 1026 0
-1635 -684 -754 0
-1635 -684 -755 0
-1635 -684 -857 0
-1635 -684 -858 0
-1635 -684 -859 0
-1635 -809 0
-1635 1006 0
-1636 835 0
-1636 668 669 0
-1636 -670 1014 0
-1636 -670 -741 0
-1636 -670 -742 0
-1636 -670 -848 0
-1636 -670 -849 0
-1636 -798 0
-1636 -677 1020 0
-1636 -677 -748 0
-1636 -677 -749 0
-1636 -677 -853 0
-1636 -677 -854 0
-1636 -804 0
-1636 -684 1026 0
-1636 -684 -755 0
-1636 -684 -756 0
-1636 -684 -858 0
-1636 -684 -859 0
-1636 -810 0
-1636 1007 0
-1637 835 0
-1637 723 724 0
-1637 -729 1014 0
-1637 -729 -678 0
-1637 -729 -679 0
-1637 -729 -846 0
-1637 -729 -847 0
-1637 -794 0
-1637 -736 1020 0
-1637 -736 -685 0
-1637 -736 -686 0
-1637 -736 -851 0
-1637 -736 -852 0
-1637 -800 0
-1637 -743 1026 0
-1637 -743 -692 0
-1637 -743 -693 0
-1637 -743 -856 0
-1637 -743 -857 0
-1637 -806 0
-1637 1003 0
-1638 835 0
-1638 724 725 0
-1638 -729 1014 0
-1638 -729 -679 0
-1638 -729 -680 0
-1638 -729 -846 0
-1638 -729 -847 0
-1638 -729 -848 0
-1638 -795 0
-1638 -736 1020 0
-1638 -736 -686 0
-1638 -736 -687 0
-1638 -736 -851 0
-1638 -736 -852 0
-1638 -736 -853 0
-1638 -801 0
-1638 -743 1026 0
-1638 -743 -693 0
-1638 -743 -694 0
-1638 -743 -856 0
-1638 -743 -857 0
-1638 -743 -858 0
-1638 -807 0
-1638 1004 0
-1639 835 0
-1639 725 726 0
-1639 -729 1014 0
-1639 -729 -680 0
-1639 -729 -681 0
-1639 -729 -846 0
-1639 -729 -847 0
-1639 -729 -848 0
-1639 -729 -849 0
-1639 -796 0
-1639 -736 1020 0
-1639 -736 -687 0
-1639 -736 -688 0
-1639 -736 -851 0
-1639 -736 -852 0
-1639 -736 -853 0
-1639 -736 -854 0
-1639 -802 0
-1639 -743 1026 0
-1639 -743 -694 0
-1639 -743 -695 0
-1639 -743 -856 0
-1639 -743 -857 0
-1639 -743 -858 0
-1639 -743 -859 0
-1639 -808 0
-1639 1005 0
-1640 835 0
-1640 726 727 0
-1640 -729 1014 0
-1640 -729 -681 0
-1640 -729 -682 0
-1640 -729 -847 0
-1640 -729 -848 0
-1640 -729 -849 0
-1640 -797 0
-1640 -736 1020 0
-1640 -736 -688 0
-1640 -736 -689 0
-1640 -736 -852 0
-1640 -736 -853 0
-1640 -736 -854 0
-1640 -803 0
-1640 -743 1026 0
-1640 -743 -695 0
-1640 -743 -696 0
-1640 -743 -857 0
-1640 -743 -858 0
-1640 -743 -859 0
-1640 -809 0
-1640 1006 0
-1641 835 0
-1641 727 728 0
-1641 -729 1014 0
-1641 -729 -682 0
-1641 -729 -683 0
-1641 -729 -848 0
-1641 -729 -849 0
-1641 -798 0
-1641 -736 1020 0
-1641 -736 -689 0
-1641 -736 -690 0
-1641 -736 -853 0
-1641 -736 -854 0
-1641 -804 0
-1641 -743 1026 0
-1641 -743 -696 0
-1641 -743 -697 0
-1641 -743 -858 0
-1641 -743 -859 0
-1641 -810 0
-1641 1007 0
-1642 835 0
-1642 836 837 0
-1642 -840 1014 0
-1642 -840 -678 0
-1642 -840 -679 0
-1642 -840 -737 0
-1642 -840 -738 0
-1642 -794 0
-1642 -845 1020 0
-1642 -845 -685 0
-1642 -845 -686 0
-1642 -845 -744 0
-1642 -845 -745 0
-1642 -800 0
-1642 -850 1026 0
-1642 -850 -692 0
-1642 -850 -693 0
-1642 -850 -751 0
-1642 -850 -752 0
-1642 -806 0
-1642 1003 0
-1643 835 0
-1643 836 837 838 0
-1643 -840 1014 0
-1643 -840 -679 0
-1643 -840 -680 0
-1643 -840 -738 0
-1643 -840 -739 0
-1643 -795 0
-1643 -845 1020 0
-1643 -845 -686 0
-1643 -845 -687 0
-1643 -845 -745 0
-1643 -845 -746 0
-1643 -801 0
-1643 -850 1026 0
-1643 -850 -693 0
-1643 -850 -694 0
-1643 -850 -752 0
-1643 -850 -753 0
-1643 -807 0
-1643 1004 0
-1644 835 0
-1644 836 837 838 839 0
-1644 -840 1014 0
-1644 -840 -680 0
-1644 -840 -681 0
-1644 -840 -739 0
-1644 -840 -740 0
-1644 -796 0
-1644 -845 1020 0
-1644 -845 -687 0
-1644 -845 -688 0
-1644 -845 -746 0
-1644 -845 -747 0
-1644 -802 0
-1644 -850 1026 0
-1644 -850 -694 0
-1644 -850 -695 0
-1644 -850 -753 0
-1644 -850 -754 0
-1644 -808 0
-1644 1005 0
-1645 835 0
-1645 837 838 839 0
-1645 -840 1014 0
-1645 -840 -681 0
-1645 -840 -682 0
-1645 -840 -740 0
-1645 -840 -741 0
-1645 -797 0
-1645 -845 1020 0
-1645 -845 -688 0
-1645 -845 -689 0
-1645 -845 -747 0
-1645 -845 -748 0
-1645 -803 0
-1645 -850 1026 0
-1645 -850 -695 0
-1645 -850 -696 0
-1645 -850 -754 0
-1645 -850 -755 0
-1645 -809 0
-1645 1006 0
-1646 835 0
-1646 838 839 0
-1646 -840 1014 0
-1646 -840 -682 0
-1646 -840 -683 0
-1646 -840 -741 0
-1646 -840 -742 0
-1646 -798 0
-1646 -845 1020 0
-1646 -845 -689 0
-1646 -845 -690 0
-1646 -845 -748 0
-1646 -845 -749 0
-1646 -804 0
-1646 -850 1026 0
-1646 -850 -696 0
-1646 -850 -697 0
-1646 -850 -755 0
-1646 -850 -756 0
-1646 -810 0
-1646 1007 0
-1647 884 0
-1647 -841 0
-1647 -671 0
-1647 -672 0
-1647 -673 0
-1647 -730 0
-1647 -731 0
-1647 -732 0
-1647 -788 0
-1647 -789 0
-1647 -790 0
-1647 1057 0
-1647 1061 0
-1648 884 0
-1648 -842 0
-1648 -672 0
-1648 -673 0
-1648 -674 0
-1648 -731 0
-1648 -732 0
-1648 -733 0
-1648 -788 0
-1648 -789 0
-1648 -790 0
-1648 -791 0
-1648 1058 0
-1648 1061 0
-1649 884 0
-1649 -843 0
-1649 -673 0
-1649 -674 0
-1649 -675 0
-1649 -732 0
-1649 -733 0
-1649 -734 0
-1649 -789 0
-1649 -790 0
-1649 -791 0
-1649 -792 0
-1649 1059 0
-1649 1061 0
-1650 884 0
-1650 -844 0
-1650 -674 0
-1650 -675 0
-1650 -676 0
-1650 -733 0
-1650 -734 0
-1650 -735 0
-1650 -790 0
-1650 -791 0
-1650 -792 0
-1650 1060 0
-1650 1061 0
-1651 884 0
-1651 664 665 666 0
-1651 -670 1066 0
-1651 -670 -737 0
-1651 -670 -738 0
-1651 -670 -739 0
-1651 -670 -794 0
-1651 -670 -795 0
-1651 -670 -796 0
-1651 -846 0
-1651 -677 1071 0
-1651 -677 -744 0
-1651 -677 -745 0
-1651 -677 -746 0
-1651 -677 -800 0
-1651 -677 -801 0
-1651 -677 -802 0
-1651 -851 0
-1651 -684 1076 0
-1651 -684 -751 0
-1651 -684 -752 0
-1651 -684 -753 0
-1651 -684 -806 0
-1651 -684 -807 0
-1651 -684 -808 0
-1651 -856 0
-1651 1057 0
-1652 884 0
-1652 665 666 667 0
-1652 -670 1066 0
-1652 -670 -738 0
-1652 -670 -739 0
-1652 -670 -740 0
-1652 -670 -794 0
-1652 -670 -795 0
-1652 -670 -796 0
-1652 -670 -797 0
-1652 -847 0
-1652 -677 1071 0
-1652 -677 -745 0
-1652 -677 -746 0
-1652 -677 -747 0
-1652 -677 -800 0
-1652 -677 -801 0
-1652 -677 -802 0
-1652 -677 -803 0
-1652 -852 0
-1652 -684 1076 0
-1652 -684 -752 0
-1652 -684 -753 0
-1652 -684 -754 0
-1652 -684 -806 0
-1652 -684 -807 0
-1652 -684 -808 0
-1652 -684 -809 0
-1652 -857 0
-1652 1058 0
-1653 884 0
-1653 666 667 668 0
-1653 -670 1066 0
-1653 -670 -739 0
-1653 -670 -740 0
-1653 -670 -741 0
-1653 -670 -795 0
-1653 -670 -796 0
-1653 -670 -797 0
-1653 -670 -798 0
-1653 -848 0
-1653 -677 1071 0
-1653 -677 -746 0
-1653 -677 -747 0
-1653 -677 -748 0
-1653 -677 -801 0
-1653 -677 -802 0
-1653 -677 -803 0
-1653 -677 -804 0
-1653 -853 0
-1653 -684 1076 0
-1653 -684 -753 0
-1653 -684 -754 0
-1653 -684 -755 0
-1653 -684 -807 0
-1653 -684 -808 0
-1653 -684 -809 0
-1653 -684 -810 0
-1653 -858 0
-1653 1059 0
-1654 884 0
-1654 667 668 669 0
-1654 -670 1066 0
-1654 -670 -740 0
-1654 -670 -741 0
-1654 -670 -742 0
-1654 -670 -796 0
-1654 -670 -797 0
-1654 -670 -798 0
-1654 -849 0
-1654 -677 1071 0
-1654 -677 -747 0
-1654 -677 -748 0
-1654 -677 -749 0
-1654 -677 -802 0
-1654 -677 -803 0
-1654 -677 -804 0
-1654 -854 0
-1654 -684 1076 0
-1654 -684 -754 0
-1654 -684 -755 0
-1654 -684 -756 0
-1654 -684 -808 0
-1654 -684 -809 0
-1654 -684 -810 0
-1654 -859 0
-1654 1060 0
-1655 884 0
-1655 723 724 725 0
-1655 -729 1066 0
-1655 -729 -678 0
-1655 -729 -679 0
-1655 -729 -680 0
-1655 -729 -794 0
-1655 -729 -795 0
-1655 -729 -796 0
-1655 -846 0
-1655 -736 1071 0
-1655 -736 -685 0
-1655 -736 -686 0
-1655 -736 -687 0
-1655 -736 -800 0
-1655 -736 -801 0
-1655 -736 -802 0
-1655 -851 0
-1655 -743 1076 0
-1655 -743 -692 0
-1655 -743 -693 0
-1655 -743 -694 0
-1655 -743 -806 0
-1655 -743 -807 0
-1655 -743 -808 0
-1655 -856 0
-1655 1057 0
-1656 884 0
-1656 724 725 726 0
-1656 -729 1066 0
-1656 -729 -679 0
-1656 -729 -680 0
-1656 -729 -681 0
-1656 -729 -794 0
-1656 -729 -795 0
-1656 -729 -796 0
-1656 -729 -797 0
-1656 -847 0
-1656 -736 1071 0
-1656 -736 -686 0
-1656 -736 -687 0
-1656 -736 -688 0
-1656 -736 -800 0
-1656 -736 -801 0
-1656 -736 -802 0
-1656 -736 -803 0
-1656 -852 0
-1656 -743 1076 0
-1656 -743 -693 0
-1656 -743 -694 0
-1656 -743 -695 0
-1656 -743 -806 0
-1656 -743 -807 0
-1656 -743 -808 0
-1656 -743 -809 0
-1656 -857 0
-1656 1058 0
-1657 884 0
-1657 725 726 727 0
-1657 -729 1066 0
-1657 -729 -680 0
-1657 -729 -681 0
-1657 -729 -682 0
-1657 -729 -795 0
-1657 -729 -796 0
-1657 -729 -797 0
-1657 -729 -798 0
-1657 -848 0
-1657 -736 1071 0
-1657 -736 -687 0
-1657 -736 -688 0
-1657 -736 -689 0
-1657 -736 -801 0
-1657 -736 -802 0
-1657 -736 -803 0
-1657 -736 -804 0
-1657 -853 0
-1657 -743 1076 0
-1657 -743 -694 0
-1657 -743 -695 0
-1657 -743 -696 0
-1657 -743 -807 0
-1657 -743 -808 0
-1657 -743 -809 0
-1657 -743 -810 0
-1657 -858 0
-1657 1059 0
-1658 884 0
-1658 726 727 728 0
-1658 -729 1066 0
-1658 -729 -681 0
-1658 -729 -682 0
-1658 -729 -683 0
-1658 -729 -796 0
-1658 -729 -797 0
-1658 -729 -798 0
-1658 -849 0
-1658 -736 1071 0
-1658 -736 -688 0
-1658 -736 -689 0
-1658 -736 -690 0
-1658 -736 -802 0
-1658 -736 -803 0
-1658 -736 -804 0
-1658 -854 0
-1658 -743 1076 0
-1658 -743 -695 0
-1658 -743 -696 0
-1658 -743 -697 0
-1658 -743 -808 0
-1658 -743 -809 0
-1658 -743 -810 0
-1658 -859 0
-1658 1060 0
-1659 884 0
-1659 782 783 784 0
-1659 -787 1066 0
-1659 -787 -678 0
-1659 -787 -679 0
-1659 -787 -680 0
-1659 -787 -737 0
-1659 -787 -738 0
-1659 -787 -739 0
-1659 -846 0
-1659 -793 1071 0
-1659 -793 -685 0
-1659 -793 -686 0
-1659 -793 -687 0
-1659 -793 -744 0
-1659 -793 -745 0
-1659 -793 -746 0
-1659 -851 0
-1659 -799 1076 0
-1659 -799 -692 0
-1659 -799 -693 0
-1659 -799 -694 0
-1659 -799 -751 0
-1659 -799 -752 0
-1659 -799 -753 0
-1659 -856 0
-1659 1057 0
-1660 884 0
-1660 782 783 784 785 0
-1660 -787 1066 0
-1660 -787 -679 0
-1660 -787 -680 0
-1660 -787 -681 0
-1660 -787 -738 0
-1660 -787 -739 0
-1660 -787 -740 0
-1660 -847 0
-1660 -793 1071 0
-1660 -793 -686 0
-1660 -793 -687 0
-1660 -793 -688 0
-1660 -793 -745 0
-1660 -793 -746 0
-1660 -793 -747 0
-1660 -852 0
-1660 -799 1076 0
-1660 -799 -693 0
-1660 -799 -694 0
-1660 -799 -695 0
-1660 -799 -752 0
-1660 -799 -753 0
-1660 -799 -754 0
-1660 -857 0
-1660 1058 0
-1661 884 0
-1661 783 784 785 786 0
-1661 -787 1066 0
-1661 -787 -680 0
-1661 -787 -681 0
-1661 -787 -682 0
-1661 -787 -739 0
-1661 -787 -740 0
-1661 -787 -741 0
-1661 -848 0
-1661 -793 1071 0
-1661 -793 -687 0
-1661 -793 -688 0
-1661 -793 -689 0
-1661 -793 -746 0
-1661 -793 -747 0
-1661 -793 -748 0
-1661 -853 0
-1661 -799 1076 0
-1661 -799 -694 0
-1661 -799 -695 0
-1661 -799 -696 0
-1661 -799 -753 0
-1661 -799 -754 0
-1661 -799 -755 0
-1661 -858 0
-1661 1059 0
-1662 884 0
-1662 784 785 786 0
-1662 -787 1066 0
-1662 -787 -681 0
-1662 -787 -682 0
-1662 -787 -683 0
-1662 -787 -740 0
-1662 -787 -741 0
-1662 -787 -742 0
-1662 -849 0
-1662 -793 1071 0
-1662 -793 -688 0
-1662 -793 -689 0
-1662 -793 -690 0
-1662 -793 -747 0
-1662 -793 -748 0
-1662 -793 -749 0
-1662 -854 0
-1662 -799 1076 0
-1662 -799 -695 0
-1662 -799 -696 0
-1662 -799 -697 0
-1662 -799 -754 0
-1662 -799 -755 0
-1662 -799 -756 0
-1662 -859 0
-1662 1060 0
-1663 943 0
-1663 -892 0
-1663 -951 0
-1663 -1009 0
-1663 -1062 0
-1663 1106 0
-1663 1112 0
-1664 943 0
-1664 -893 0
-1664 -952 0
-1664 -1009 0
-1664 -1010 0
-1664 -1062 0
-1664 -1063 0
-1664 1107 0
-1664 1112 0
-1665 943 0
-1665 -894 0
-1665 -953 0
-1665 -1010 0
-1665 -1011 0
-1665 -1062 0
-1665 -1063 0
-1665 -1064 0
-1665 1108 0
-1665 1112 0
-1666 943 0
-1666 -895 0
-1666 -954 0
-1666 -1011 0
-1666 -1012 0
-1666 -1063 0
-1666 -1064 0
-1666 -1065 0
-1666 1109 0
-1666 1112 0
-1667 943 0
-1667 -896 0
-1667 -955 0
-1667 -1012 0
-1667 -1013 0
-1667 -1064 0
-1667 -1065 0
-1667 1110 0
-1667 1112 0
-1668 943 0
-1668 -897 0
-1668 -956 0
-1668 -1013 0
-1668 -1065 0
-1668 1111 0
-1668 1112 0
-1669 943 0
-1669 944 0
-1669 -950 1119 0
-1669 -950 -1015 0
-1669 -950 -1067 0
-1669 -899 0
-1669 -957 1126 0
-1669 -957 -1021 0
-1669 -957 -1072 0
-1669 -906 0
-1669 -964 1133 0
-1669 -964 -1027 0
-1669 -964 -1077 0
-1669 -913 0
-1669 1106 0
-1670 943 0
-1670 945 0
-1670 -950 1119 0
-1670 -950 -1015 0
-1670 -950 -1016 0
-1670 -950 -1067 0
-1670 -950 -1068 0
-1670 -900 0
-1670 -957 1126 0
-1670 -957 -1021 0
-1670 -957 -1022 0
-1670 -957 -1072 0
-1670 -957 -1073 0
-1670 -907 0
-1670 -964 1133 0
-1670 -964 -1027 0
-1670 -964 -1028 0
-1670 -964 -1077 0
-1670 -964 -1078 0
-1670 -914 0
-1670 1107 0
-1671 943 0
-1671 946 0
-1671 -950 1119 0
-1671 -950 -1016 0
-1671 -950 -1017 0
-1671 -950 -1067 0
-1671 -950 -1068 0
-1671 -950 -1069 0
-1671 -901 0
-1671 -957 1126 0
-1671 -957 -1022 0
-1671 -957 -1023 0
-1671 -957 -1072 0
-1671 -957 -1073 0
-1671 -957 -1074 0
-1671 -908 0
-1671 -964 1133 0
-1671 -964 -1028 0
-1671 -964 -1029 0
-1671 -964 -1077 0
-1671 -964 -1078 0
-1671 -964 -1079 0
-1671 -915 0
-1671 1108 0
-1672 943 0
-1672 947 0
-1672 -950 1119 0
-1672 -950 -1017 0
-1672 -950 -1018 0
-1672 -950 -1068 0
-1672 -950 -1069 0
-1672 -950 -1070 0
-1672 -902 0
-1672 -957 1126 0
-1672 -957 -1023 0
-1672 -957 -1024 0
-1672 -957 -1073 0
-1672 -957 -1074 0
-1672 -957 -1075 0
-1672 -909 0
-1672 -964 1133 0
-1672 -964 -1029 0
-1672 -964 -1030 0
-1672 -964 -1078 0
-1672 -964 -1079 0
-1672 -964 -1080 0
-1672 -916 0
-1672 1109 0
-1673 943 0
-1673 948 0
-1673 -950 1119 0
-1673 -950 -1018 0
-1673 -950 -1019 0
-1673 -950 -1069 0
-1673 -950 -1070 0
-1673 -903 0
-1673 -957 1126 0
-1673 -957 -1024 0
-1673 -957 -1025 0
-1673 -957 -1074 0
-1673 -957 -1075 0
-1673 -910 0
-1673 -964 1133 0
-1673 -964 -1030 0
-1673 -964 -1031 0
-1673 -964 -1079 0
-1673 -964 -1080 0
-1673 -917 0
-1673 1110 0
-1674 943 0
-1674 949 0
-1674 -950 1119 0
-1674 -950 -1019 0
-1674 -950 -1070 0
-1674 -904 0
-1674 -957 1126 0
-1674 -957 -1025 0
-1674 -957 -1075 0
-1674 -911 0
-1674 -964 1133 0
-1674 -964 -1031 0
-1674 -964 -1080 0
-1674 -918 0
-1674 1111 0
-1675 943 0
-1675 1003 0
-1675 -1008 1119 0
-1675 -1008 -958 0
-1675 -1008 -1067 0
-1675 -899 0
-1675 -1014 1126 0
-1675 -1014 -965 0
-1675 -1014 -1072 0
-1675 -906 0
-1675 -1020 1133 0
-1675 -1020 -972 0
-1675 -1020 -1077 0
-1675 -913 0
-1675 1106 0
-1676 943 0
-1676 1003 1004 0
-1676 -1008 1119 0
-1676 -1008 -959 0
-1676 -1008 -1067 0
-1676 -1008 -1068 0
-1676 -900 0
-1676 -1014 1126 0
-1676 -1014 -966 0
-1676 -1014 -1072 0
-1676 -1014 -1073 0
-1676 -907 0
-1676 -1020 1133 0
-1676 -1020 -973 0
-1676 -1020 -1077 0
-1676 -1020 -1078 0
-1676 -914 0
-1676 1107 0
-1677 943 0
-1677 1004 1005 0
-1677 -1008 1119 0
-1677 -1008 -960 0
-1677 -1008 -1067 0
-1677 -1008 -1068 0
-1677 -1008 -1069 0
-1677 -901 0
-1677 -1014 1126 0
-1677 -1014 -967 0
-1677 -1014 -1072 0
-1677 -1014 -1073 0
-1677 -1014 -1074 0
-1677 -908 0
-1677 -1020 1133 0
-1677 -1020 -974 0
-1677 -1020 -1077 0
-1677 -1020 -1078 0
-1677 -1020 -1079 0
-1677 -915 0
-1677 1108 0
-1678 943 0
-1678 1005 1006 0
-1678 -1008 1119 0
-1678 -1008 -961 0
-1678 -1008 -1068 0
-1678 -1008 -1069 0
-1678 -1008 -1070 0
-1678 -902 0
-1678 -1014 1126 0
-1678 -1014 -968 0
-1678 -1014 -1073 0
-1678 -1014 -1074 0
-1678 -1014 -1075 0
-1678 -909 0
-1678 -1020 1133 0
-1678 -1020 -975 0
-1678 -1020 -1078 0
-1678 -1020 -1079 0
-1678 -1020 -1080 0
-1678 -916 0
-1678 1109 0
-1679 943 0
-1679 1006 1007 0
-1679 -1008 1119 0
-1679 -1008 -962 0
-1679 -1008 -1069 0
-1679 -1008 -1070 0
-1679 -903 0
-1679 -1014 1126 0
-1679 -1014 -969 0
-1679 -1014 -1074 0
-1679 -1014 -1075 0
-1679 -910 0
-1679 -1020 1133 0
-1679 -1020 -976 0
-1679 -1020 -1079 0
-1679 -1020 -1080 0
-1679 -917 0
-1679 1110 0
-1680 943 0
-1680 1007 0
-1680 -1008 1119 0
-1680 -1008 -963 0
-1680 -1008 -1070 0
-1680 -904 0
-1680 -1014 1126 0
-1680 -1014 -970 0
-1680 -1014 -1075 0
-1680 -911 0
-1680 -1020 1133 0
-1680 -1020 -977 0
-1680 -1020 -1080 0
-1680 -918 0
-1680 1111 0
-1681 943 0
-1681 1057 0
-1681 -1061 1119 0
-1681 -1061 -958 0
-1681 -1061 -1015 0
-1681 -899 0
-1681 -1066 1126 0
-1681 -1066 -965 0
-1681 -1066 -1021 0
-1681 -906 0
-1681 -1071 1133 0
-1681 -1071 -972 0
-1681 -1071 -1027 0
-1681 -913 0
-1681 1106 0
-1682 943 0
-1682 1057 1058 0
-1682 -1061 1119 0
-1682 -1061 -959 0
-1682 -1061 -1015 0
-1682 -1061 -1016 0
-1682 -900 0
-1682 -1066 1126 0
-1682 -1066 -966 0
-1682 -1066 -1021 0
-1682 -1066 -1022 0
-1682 -907 0
-1682 -1071 1133 0
-1682 -1071 -973 0
-1682 -1071 -1027 0
-1682 -1071 -1028 0
-1682 -914 0
-1682 1107 0
-1683 943 0
-1683 1057 1058 1059 0
-1683 -1061 1119 0
-1683 -1061 -960 0
-1683 -1061 -1016 0
-1683 -1061 -1017 0
-1683 -901 0
-1683 -1066 1126 0
-1683 -1066 -967 0
-1683 -1066 -1022 0
-1683 -1066 -1023 0
-1683 -908 0
-1683 -1071 1133 0
-1683 -1071 -974 0
-1683 -1071 -1028 0
-1683 -1071 -1029 0
-1683 -915 0
-1683 1108 0
-1684 943 0
-1684 1058 1059 1060 0
-1684 -1061 1119 0
-1684 -1061 -961 0
-1684 -1061 -1017 0
-1684 -1061 -1018 0
-1684 -902 0
-1684 -1066 1126 0
-1684 -1066 -968 0
-1684 -1066 -1023 0
-1684 -1066 -1024 0
-1684 -909 0
-1684 -1071 1133 0
-1684 -1071 -975 0
-1684 -1071 -1029 0
-1684 -1071 -1030 0
-1684 -916 0
-1684 1109 0
-1685 943 0
-1685 1059 1060 0
-1685 -1061 1119 0
-1685 -1061 -962 0
-1685 -1061 -1018 0
-1685 -1061 -1019 0
-1685 -903 0
-1685 -1066 1126 0
-1685 -1066 -969 0
-1685 -1066 -1024 0
-1685 -1066 -1025 0
-1685 -910 0
-1685 -1071 1133 0
-1685 -1071 -976 0
-1685 -1071 -1030 0
-1685 -1071 -1031 0
-1685 -917 0
-1685 1110 0
-1686 943 0
-1686 1060 0
-1686 -1061 1119 0
-1686 -1061 -963 0
-1686 -1061 -1019 0
-1686 -904 0
-1686 -1066 1126 0
-1686 -1066 -970 0
-1686 -1066 -1025 0
-1686 -911 0
-1686 -1071 1133 0
-1686 -1071 -977 0
-1686 -1071 -1031 0
-1686 -918 0
-1686 1111 0
-1687 1002 0
-1687 -951 0
-1687 -892 0
-1687 -1009 0
-1687 -1062 0
-1687 1165 0
-1687 1171 0
-1688 1002 0
-1688 -952 0
-1688 -893 0
-1688 -1009 0
-1688 -1010 0
-1688 -1062 0
-1688 -1063 0
-1688 1166 0
-1688 1171 0
-1689 1002 0
-1689 -953 0
-1689 -894 0
-1689 -1010 0
-1689 -1011 0
-1689 -1062 0
-1689 -1063 0
-1689 -1064 0
-1689 1167 0
-1689 1171 0
-1690 1002 0
-1690 -954 0
-1690 -895 0
-1690 -1011 0
-1690 -1012 0
-1690 -1063 0
-1690 -1064 0
-1690 -1065 0
-1690 1168 0
-1690 1171 0
-1691 1002 0
-1691 -955 0
-1691 -896 0
-1691 -1012 0
-1691 -1013 0
-1691 -1064 0
-1691 -1065 0
-1691 1169 0
-1691 1171 0
-1692 1002 0
-1692 -956 0
-1692 -897 0
-1692 -1013 0
-1692 -1065 0
-1692 1170 0
-1692 1171 0
-1693 1002 0
-1693 885 0
-1693 -891 1178 0
-1693 -891 -1015 0
-1693 -891 -1067 0
-1693 -958 0
-1693 -898 1185 0
-1693 -898 -1021 0
-1693 -898 -1072 0
-1693 -965 0
-1693 -905 1192 0
-1693 -905 -1027 0
-1693 -905 -1077 0
-1693 -972 0
-1693 1165 0
-1694 1002 0
-1694 886 0
-1694 -891 1178 0
-1694 -891 -1015 0
-1694 -891 -1016 0
-1694 -891 -1067 0
-1694 -891 -1068 0
-1694 -959 0
-1694 -898 1185 0
-1694 -898 -1021 0
-1694 -898 -1022 0
-1694 -898 -1072 0
-1694 -898 -1073 0
-1694 -966 0
-1694 -905 1192 0
-1694 -905 -1027 0
-1694 -905 -1028 0
-1694 -905 -1077 0
-1694 -905 -1078 0
-1694 -973 0
-1694 1166 0
-1695 1002 0
-1695 887 0
-1695 -891 1178 0
-1695 -891 -1016 0
-1695 -891 -1017 0
-1695 -891 -1067 0
-1695 -891 -1068 0
-1695 -891 -1069 0
-1695 -960 0
-1695 -898 1185 0
-1695 -898 -1022 0
-1695 -898 -1023 0
-1695 -898 -1072 0
-1695 -898 -1073 0
-1695 -898 -1074 0
-1695 -967 0
-1695 -905 1192 0
-1695 -905 -1028 0
-1695 -905 -1029 0
-1695 -905 -1077 0
-1695 -905 -1078 0
-1695 -905 -1079 0
-1695 -974 0
-1695 1167 0
-1696 1002 0
-1696 888 0
-1696 -891 1178 0
-1696 -891 -1017 0
-1696 -891 -1018 0
-1696 -891 -1068 0
-1696 -891 -1069 0
-1696 -891 -1070 0
-1696 -961 0
-1696 -898 1185 0
-1696 -898 -1023 0
-1696 -898 -1024 0
-1696 -898 -1073 0
-1696 -898 -1074 0
-1696 -898 -1075 0
-1696 -968 0
-1696 -905 1192 0
-1696 -905 -1029 0
-1696 -905 -1030 0
-1696 -905 -1078 0
-1696 -905 -1079 0
-1696 -905 -1080 0
-1696 -975 0
-1696 1168 0
-1697 1002 0
-1697 889 0
-1697 -891 1178 0
-1697 -891 -1018 0
-1697 -891 -1019 0
-1697 -891 -1069 0
-1697 -891 -1070 0
-1697 -962 0
-1697 -898 1185 0
-1697 -898 -1024 0
-1697 -898 -1025 0
-1697 -898 -1074 0
-1697 -898 -1075 0
-1697 -969 0
-1697 -905 1192 0
-1697 -905 -1030 0
-1697 -905 -1031 0
-1697 -905 -1079 0
-1697 -905 -1080 0
-1697 -976 0
-1697 1169 0
-1698 1002 0
-1698 890 0
-1698 -891 1178 0
-1698 -891 -1019 0
-1698 -891 -1070 0
-1698 -963 0
-1698 -898 1185 0
-1698 -898 -1025 0
-1698 -898 -1075 0
-1698 -970 0
-1698 -905 1192 0
-1698 -905 -1031 0
-1698 -905 -1080 0
-1698 -977 0
-1698 1170 0
-1699 1002 0
-1699 1003 0
-1699 -1008 1178 0
-1699 -1008 -899 0
-1699 -1008 -1067 0
-1699 -958 0
-1699 -1014 1185 0
-1699 -1014 -906 0
-1699 -1014 -1072 0
-1699 -965 0
-1699 -1020 1192 0
-1699 -1020 -913 0
-1699 -1020 -1077 0
-1699 -972 0
-1699 1165 0
-1700 1002 0
-1700 1003 1004 0
-1700 -1008 1178 0
-1700 -1008 -900 0
-1700 -1008 -1067 0
-1700 -1008 -1068 0
-1700 -959 0
-1700 -1014 1185 0
-1700 -1014 -907 0
-1700 -1014 -1072 0
-1700 -1014 -1073 0
-1700 -966 0
-1700 -1020 1192 0
-1700 -1020 -914 0
-1700 -1020 -1077 0
-1700 -1020 -1078 0
-1700 -973 0
-1700 1166 0
-1701 1002 0
-1701 1004 1005 0
-1701 -1008 1178 0
-1701 -1008 -901 0
-1701 -1008 -1067 0
-1701 -1008 -1068 0
-1701 -1008 -1069 0
-1701 -960 0
-1701 -1014 1185 0
-1701 -1014 -908 0
-1701 -1014 -1072 0
-1701 -1014 -1073 0
-1701 -1014 -1074 0
-1701 -967 0
-1701 -1020 1192 0
-1701 -1020 -915 0
-1701 -1020 -1077 0
-1701 -1020 -1078 0
-1701 -1020 -1079 0
-1701 -974 0
-1701 1167 0
-1702 1002 0
-1702 1005 1006 0
-1702 -1008 1178 0
-1702 -1008 -902 0
-1702 -1008 -1068 0
-1702 -1008 -1069 0
-1702 -1008 -1070 0
-1702 -961 0
-1702 -1014 1185 0
-1702 -1014 -909 0
-1702 -1014 -1073 0
-1702 -1014 -1074 0
-1702 -1014 -1075 0
-1702 -968 0
-1702 -1020 1192 0
-1702 -1020 -916 0
-1702 -1020 -1078 0
-1702 -1020 -1079 0
-1702 -1020 -1080 0
-1702 -975 0
-1702 1168 0
-1703 1002 0
-1703 1006 1007 0
-1703 -1008 1178 0
-1703 -1008 -903 0
-1703 -1008 -1069 0
-1703 -1008 -1070 0
-1703 -962 0
-1703 -1014 1185 0
-1703 -1014 -910 0
-1703 -1014 -1074 0
-1703 -1014 -1075 0
-1703 -969 0
-1703 -1020 1192 0
-1703 -1020 -917 0
-1703 -1020 -1079 0
-1703 -1020 -1080 0
-1703 -976 0
-1703 1169 0
-1704 1002 0
-1704 1007 0
-1704 -1008 1178 0
-1704 -1008 -904 0
-1704 -1008 -1070 0
-1704 -963 0
-1704 -1014 1185 0
-1704 -1014 -911 0
-1704 -1014 -1075 0
-1704 -970 0
-1704 -1020 1192 0
-1704 -1020 -918 0
-1704 -1020 -1080 0
-1704 -977 0
-1704 1170 0
-1705 1002 0
-1705 1057 0
-1705 -1061 1178 0
-1705 -1061 -899 0
-1705 -1061 -1015 0
-1705 -958 0
-1705 -1066 1185 0
-1705 -1066 -906 0
-1705 -1066 -1021 0
-1705 -965 0
-1705 -1071 1192 0
-1705 -1071 -913 0
-1705 -1071 -1027 0
-1705 -972 0
-1705 1165 0
-1706 1002 0
-1706 1057 1058 0
-1706 -1061 1178 0
-1706 -1061 -900 0
-1706 -1061 -1015 0
-1706 -1061 -1016 0
-1706 -959 0
-1706 -1066 1185 0
-1706 -1066 -907 0
-1706 -1066 -1021 0
-1706 -1066 -1022 0
-1706 -966 0
-1706 -1071 1192 0
-1706 -1071 -914 0
-1706 -1071 -1027 0
-1706 -1071 -1028 0
-1706 -973 0
-1706 1166 0
-1707 1002 0
-1707 1057 1058 1059 0
-1707 -1061 1178 0
-1707 -1061 -901 0
-1707 -1061 -1016 0
-1707 -1061 -1017 0
-1707 -960 0
-1707 -1066 1185 0
-1707 -1066 -908 0
-1707 -1066 -1022 0
-1707 -1066 -1023 0
-1707 -967 0
-1707 -1071 1192 0
-1707 -1071 -915 0
-1707 -1071 -1028 0
-1707 -1071 -1029 0
-1707 -974 0
-1707 1167 0
-1708 1002 0
-1708 1058 1059 1060 0
-1708 -1061 1178 0
-1708 -1061 -902 0
-1708 -1061 -1017 0
-1708 -1061 -1018 0
-1708 -961 0
-1708 -1066 1185 0
-1708 -1066 -909 0
-1708 -1066 -1023 0
-1708 -1066 -1024 0
-1708 -968 0
-1708 -1071 1192 0
-1708 -1071 -916 0
-1708 -1071 -1029 0
-1708 -1071 -1030 0
-1708 -975 0
-1708 1168 0
-1709 1002 0
-1709 1059 1060 0
-1709 -1061 1178 0
-1709 -1061 -903 0
-1709 -1061 -1018 0
-1709 -1061 -1019 0
-1709 -962 0
-1709 -1066 1185 0
-1709 -1066 -910 0
-1709 -1066 -1024 0
-1709 -1066 -1025 0
-1709 -969 0
-1709 -1071 1192 0
-1709 -1071 -917 0
-1709 -1071 -1030 0
-1709 -1071 -1031 0
-1709 -976 0
-1709 1169 0
-1710 1002 0
-1710 1060 0
-1710 -1061 1178 0
-1710 -1061 -904 0
-1710 -1061 -1019 0
-1710 -963 0
-1710 -1066 1185 0
-1710 -1066 -911 0
-1710 -1066 -1025 0
-1710 -970 0
-1710 -1071 1192 0
-1710 -1071 -918 0
-1710 -1071 -1031 0
-1710 -977 0
-1710 1170 0
-1711 1056 0
-1711 -1009 0
-1711 -892 0
-1711 -893 0
-1711 -951 0
-1711 -952 0
-1711 -1062 0
-1711 -1063 0
-1711 1224 0
-1711 1229 0
-1712 1056 0
-1712 -1010 0
-1712 -893 0
-1712 -894 0
-1712 -952 0
-1712 -953 0
-1712 -1062 0
-1712 -1063 0
-1712 -1064 0
-1712 1225 0
-1712 1229 0
-1713 1056 0
-1713 -1011 0
-1713 -894 0
-1713 -895 0
-1713 -953 0
-1713 -954 0
-1713 -1062 0
-1713 -1063 0
-1713 -1064 0
-1713 -1065 0
-1713 1226 0
-1713 1229 0
-1714 1056 0
-1714 -1012 0
-1714 -895 0
-1714 -896 0
-1714 -954 0
-1714 -955 0
-1714 -1063 0
-1714 -1064 0
-1714 -1065 0
-1714 1227 0
-1714 1229 0
-1715 1056 0
-1715 -1013 0
-1715 -896 0
-1715 -897 0
-1715 -955 0
-1715 -956 0
-1715 -1064 0
-1715 -1065 0
-1715 1228 0
-1715 1229 0
-1716 1056 0
-1716 885 886 0
-1716 -891 1235 0
-1716 -891 -958 0
-1716 -891 -959 0
-1716 -891 -1067 0
-1716 -891 -1068 0
-1716 -1015 0
-1716 -898 1241 0
-1716 -898 -965 0
-1716 -898 -966 0
-1716 -898 -1072 0
-1716 -898 -1073 0
-1716 -1021 0
-1716 -905 1247 0
-1716 -905 -972 0
-1716 -905 -973 0
-1716 -905 -1077 0
-1716 -905 -1078 0
-1716 -1027 0
-1716 1224 0
-1717 1056 0
-1717 886 887 0
-1717 -891 1235 0
-1717 -891 -959 0
-1717 -891 -960 0
-1717 -891 -1067 0
-1717 -891 -1068 0
-1717 -891 -1069 0
-1717 -1016 0
-1717 -898 1241 0
-1717 -898 -966 0
-1717 -898 -967 0
-1717 -898 -1072 0
-1717 -898 -1073 0
-1717 -898 -1074 0
-1717 -1022 0
-1717 -905 1247 0
-1717 -905 -973 0
-1717 -905 -974 0
-1717 -905 -1077 0
-1717 -905 -1078 0
-1717 -905 -1079 0
-1717 -1028 0
-1717 1225 0
-1718 1056 0
-1718 887 888 0
-1718 -891 1235 0
-1718 -891 -960 0
-1718 -891 -961 0
-1718 -891 -1067 0
-1718 -891 -1068 0
-1718 -891 -1069 0
-1718 -891 -1070 0
-1718 -1017 0
-1718 -898 1241 0
-1718 -898 -967 0
-1718 -898 -968 0
-1718 -898 -1072 0
-1718 -898 -1073 0
-1718 -898 -1074 0
-1718 -898 -1075 0
-1718 -1023 0
-1718 -905 1247 0
-1718 -905 -974 0
-1718 -905 -975 0
-1718 -905 -1077 0
-1718 -905 -1078 0
-1718 -905 -1079 0
-1718 -905 -1080 0
-1718 -1029 0
-1718 1226 0
-1719 1056 0
-1719 888 889 0
-1719 -891 1235 0
-1719 -891 -961 0
-1719 -891 -962 0
-1719 -891 -1068 0
-1719 -891 -1069 0
-1719 -891 -1070 0
-1719 -1018 0
-1719 -898 1241 0
-1719 -898 -968 0
-1719 -898 -969 0
-1719 -898 -1073 0
-1719 -898 -1074 0
-1719 -898 -1075 0
-1719 -1024 0
-1719 -905 1247 0
-1719 -905 -975 0
-1719 -905 -976 0
-1719 -905 -1078 0
-1719 -905 -1079 0
-1719 -905 -1080 0
-1719 -1030 0
-1719 1227 0
-1720 1056 0
-1720 889 890 0
-1720 -891 1235 0
-1720 -891 -962 0
-1720 -891 -963 0
-1720 -891 -1069 0
-1720 -891 -1070 0
-1720 -1019 0
-1720 -898 1241 0
-1720 -898 -969 0
-1720 -898 -970 0
-1720 -898 -1074 0
-1720 -898 -1075 0
-1720 -1025 0
-1720 -905 1247 0
-1720 -905 -976 0
-1720 -905 -977 0
-1720 -905 -1079 0
-1720 -905 -1080 0
-1720 -1031 0
-1720 1228 0
-1721 1056 0
-1721 944 945 0
-1721 -950 1235 0
-1721 -950 -899 0
-1721 -950 -900 0
-1721 -950 -1067 0
-1721 -950 -1068 0
-1721 -1015 0
-1721 -957 1241 0
-1721 -957 -906 0
-1721 -957 -907 0
-1721 -957 -1072 0
-1721 -957 -1073 0
-1721 -1021 0
-1721 -964 1247 0
-1721 -964 -913 0
-1721 -964 -914 0
-1721 -964 -1077 0
-1721 -964 -1078 0
-1721 -1027 0
-1721 1224 0
-1722 1056 0
-1722 945 946 0
-1722 -950 1235 0
-1722 -950 -900 0
-1722 -950 -901 0
-1722 -950 -1067 0
-1722 -950 -1068 0
-1722 -950 -1069 0
-1722 -1016 0
-1722 -957 1241 0
-1722 -957 -907 0
-1722 -957 -908 0
-1722 -957 -1072 0
-1722 -957 -1073 0
-1722 -957 -1074 0
-1722 -1022 0
-1722 -964 1247 0
-1722 -964 -914 0
-1722 -964 -915 0
-1722 -964 -1077 0
-1722 -964 -1078 0
-1722 -964 -1079 0
-1722 -1028 0
-1722 1225 0
-1723 1056 0
-1723 946 947 0
-1723 -950 1235 0
-1723 -950 -901 0
-1723 -950 -902 0
-1723 -950 -1067 0
-1723 -950 -1068 0
-1723 -950 -1069 0
-1723 -950 -1070 0
-1723 -1017 0
-1723 -957 1241 0
-1723 -957 -908 0
-1723 -957 -909 0
-1723 -957 -1072 0
-1723 -957 -1073 0
-1723 -957 -1074 0
-1723 -957 -1075 0
-1723 -1023 0
-1723 -964 1247 0
-1723 -964 -915 0
-1723 -964 -916 0
-1723 -964 -1077 0
-1723 -964 -1078 0
-1723 -964 -1079 0
-1723 -964 -1080 0
-1723 -1029 0
-1723 1226 0
-1724 1056 0
-1724 947 948 0
-1724 -950 1235 0
-1724 -950 -902 0
-1724 -950 -903 0
-1724 -950 -1068 0
-1724 -950 -1069 0
-1724 -950 -1070 0
-1724 -1018 0
-1724 -957 1241 0
-1724 -957 -909 0
-1724 -957 -910 0
-1724 -957 -1073 0
-1724 -957 -1074 0
-1724 -957 -1075 0
-1724 -1024 0
-1724 -964 1247 0
-1724 -964 -916 0
-1724 -964 -917 0
-1724 -964 -1078 0
-1724 -964 -1079 0
-1724 -964 -1080 0
-1724 -1030 0
-1724 1227 0
-1725 1056 0
-1725 948 949 0
-1725 -950 1235 0
-1725 -950 -903 0
-1725 -950 -904 0
-1725 -950 -1069 0
-1725 -950 -1070 0
-1725 -1019 0
-1725 -957 1241 0
-1725 -957 -910 0
-1725 -957 -911 0
-1725 -957 -1074 0
-1725 -957 -1075 0
-1725 -1025 0
-1725 -964 1247 0
-1725 -964 -917 0
-1725 -964 -918 0
-1725 -964 -1079 0
-1725 -964 -1080 0
-1725 -1031 0
-1725 1228 0
-1726 1056 0
-1726 1057 1058 0
-1726 -1061 1235 0
-1726 -1061 -899 0
-1726 -1061 -900 0
-1726 -1061 -958 0
-1726 -1061 -959 0
-1726 -1015 0
-1726 -1066 1241 0
-1726 -1066 -906 0
-1726 -1066 -907 0
-1726 -1066 -965 0
-1726 -1066 -966 0
-1726 -1021 0
-1726 -1071 1247 0
-1726 -1071 -913 0
-1726 -1071 -914 0
-1726 -1071 -972 0
-1726 -1071 -973 0
-1726 -1027 0
-1726 1224 0
-1727 1056 0
-1727 1057 1058 1059 0
-1727 -1061 1235 0
-1727 -1061 -900 0
-1727 -1061 -901 0
-1727 -1061 -959 0
-1727 -1061 -960 0
-1727 -1016 0
-1727 -1066 1241 0
-1727 -1066 -907 0
-1727 -1066 -908 0
-1727 -1066 -966 0
-1727 -1066 -967 0
-1727 -1022 0
-1727 -1071 1247 0
-1727 -1071 -914 0
-1727 -1071 -915 0
-1727 -1071 -973 0
-1727 -1071 -974 0
-1727 -1028 0
-1727 1225 0
-1728 1056 0
-1728 1057 1058 1059 1060 0
-1728 -1061 1235 0
-1728 -1061 -901 0
-1728 -1061 -902 0
-1728 -1061 -960 0
-1728 -1061 -961 0
-1728 -1017 0
-1728 -1066 1241 0
-1728 -1066 -908 0
-1728 -1066 -909 0
-1728 -1066 -967 0
-1728 -1066 -968 0
-1728 -1023 0
-1728 -1071 1247 0
-1728 -1071 -915 0
-1728 -1071 -916 0
-1728 -1071 -974 0
-1728 -1071 -975 0
-1728 -1029 0
-1728 1226 0
-1729 1056 0
-1729 1058 1059 1060 0
-1729 -1061 1235 0
-1729 -1061 -902 0
-1729 -1061 -903 0
-1729 -1061 -961 0
-1729 -1061 -962 0
-1729 -1018 0
-1729 -1066 1241 0
-1729 -1066 -909 0
-1729 -1066 -910 0
-1729 -1066 -968 0
-1729 -1066 -969 0
-1729 -1024 0
-1729 -1071 1247 0
-1729 -1071 -916 0
-1729 -1071 -917 0
-1729 -1071 -975 0
-1729 -1071 -976 0
-1729 -1030 0
-1729 1227 0
-1730 1056 0
-1730 1059 1060 0
-1730 -1061 1235 0
-1730 -1061 -903 0
-1730 -1061 -904 0
-1730 -1061 -962 0
-1730 -1061 -963 0
-1730 -1019 0
-1730 -1066 1241 0
-1730 -1066 -910 0
-1730 -1066 -911 0
-1730 -1066 -969 0
-1730 -1066 -970 0
-1730 -1025 0
-1730 -1071 1247 0
-1730 -1071 -917 0
-1730 -1071 -918 0
-1730 -1071 -976 0
-1730 -1071 -977 0
-1730 -1031 0
-1730 1228 0
-1731 1105 0
-1731 -1062 0
-1731 -892 0
-1731 -893 0
-1731 -894 0
-1731 -951 0
-1731 -952 0
-1731 -953 0
-1731 -1009 0
-1731 -1010 0
-1731 -1011 0
-1731 1278 0
-1731 1282 0
-1732 1105 0
-1732 -1063 0
-1732 -893 0
-1732 -894 0
-1732 -895 0
-1732 -952 0
-1732 -953 0
-1732 -954 0
-1732 -1009 0
-1732 -1010 0
-1732 -1011 0
-1732 -1012 0
-1732 1279 0
-1732 1282 0
-1733 1105 0
-1733 -1064 0
-1733 -894 0
-1733 -895 0
-1733 -896 0
-1733 -953 0
-1733 -954 0
-1733 -955 0
-1733 -1010 0
-1733 -1011 0
-1733 -1012 0
-1733 -1013 0
-1733 1280 0
-1733 1282 0
-1734 1105 0
-1734 -1065 0
-1734 -895 0
-1734 -896 0
-1734 -897 0
-1734 -954 0
-1734 -955 0
-1734 -956 0
-1734 -1011 0
-1734 -1012 0
-1734 -1013 0
-1734 1281 0
-1734 1282 0
-1735 1105 0
-1735 885 886 887 0
-1735 -891 1287 0
-1735 -891 -958 0
-1735 -891 -959 0
-1735 -891 -960 0
-1735 -891 -1015 0
-1735 -891 -1016 0
-1735 -891 -1017 0
-1735 -1067 0
-1735 -898 1292 0
-1735 -898 -965 0
-1735 -898 -966 0
-1735 -898 -967 0
-1735 -898 -1021 0
-1735 -898 -1022 0
-1735 -898 -1023 0
-1735 -1072 0
-1735 -905 1297 0
-1735 -905 -972 0
-1735 -905 -973 0
-1735 -905 -974 0
-1735 -905 -1027 0
-1735 -905 -1028 0
-1735 -905 -1029 0
-1735 -1077 0
-1735 1278 0
-1736 1105 0
-1736 886 887 888 0
-1736 -891 1287 0
-1736 -891 -959 0
-1736 -891 -960 0
-1736 -891 -961 0
-1736 -891 -1015 0
-1736 -891 -1016 0
-1736 -891 -1017 0
-1736 -891 -1018 0
-1736 -1068 0
-1736 -898 1292 0
-1736 -898 -966 0
-1736 -898 -967 0
-1736 -898 -968 0
-1736 -898 -1021 0
-1736 -898 -1022 0
-1736 -898 -1023 0
-1736 -898 -1024 0
-1736 -1073 0
-1736 -905 1297 0
-1736 -905 -973 0
-1736 -905 -974 0
-1736 -905 -975 0
-1736 -905 -1027 0
-1736 -905 -1028 0
-1736 -905 -1029 0
-1736 -905 -1030 0
-1736 -1078 0
-1736 1279 0
-1737 1105 0
-1737 887 888 889 0
-1737 -891 1287 0
-1737 -891 -960 0
-1737 -891 -961 0
-1737 -891 -962 0
-1737 -891 -1016 0
-1737 -891 -1017 0
-1737 -891 -1018 0
-1737 -891 -1019 0
-1737 -1069 0
-1737 -898 1292 0
-1737 -898 -967 0
-1737 -898 -968 0
-1737 -898 -969 0
-1737 -898 -1022 0
-1737 -898 -1023 0
-1737 -898 -1024 0
-1737 -898 -1025 0
-1737 -1074 0
-1737 -905 1297 0
-1737 -905 -974 0
-1737 -905 -975 0
-1737 -905 -976 0
-1737 -905 -1028 0
-1737 -905 -1029 0
-1737 -905 -1030 0
-1737 -905 -1031 0
-1737 -1079 0
-1737 1280 0
-1738 1105 0
-1738 888 889 890 0
-1738 -891 1287 0
-1738 -891 -961 0
-1738 -891 -962 0
-1738 -891 -963 0
-1738 -891 -1017 0
-1738 -891 -1018 0
-1738 -891 -1019 0
-1738 -1070 0
-1738 -898 1292 0
-1738 -898 -968 0
-1738 -898 -969 0
-1738 -898 -970 0
-1738 -898 -1023 0
-1738 -898 -1024 0
-1738 -898 -1025 0
-1738 -1075 0
-1738 -905 1297 0
-1738 -905 -975 0
-1738 -905 -976 0
-1738 -905 -977 0
-1738 -905 -1029 0
-1738 -905 -1030 0
-1738 -905 -1031 0
-1738 -1080 0
-1738 1281 0
-1739 1105 0
-1739 944 945 946 0
-1739 -950 1287 0
-1739 -950 -899 0
-1739 -950 -900 0
-1739 -950 -901 0
-1739 -950 -1015 0
-1739 -950 -1016 0
-1739 -950 -1017 0
-1739 -1067 0
-1739 -957 1292 0
-1739 -957 -906 0
-1739 -957 -907 0
-1739 -957 -908 0
-1739 -957 -1021 0
-1739 -957 -1022 0
-1739 -957 -1023 0
-1739 -1072 0
-1739 -964 1297 0
-1739 -964 -913 0
-1739 -964 -914 0
-1739 -964 -915 0
-1739 -964 -1027 0
-1739 -964 -1028 0
-1739 -964 -1029 0
-1739 -1077 0
-1739 1278 0
-1740 1105 0
-1740 945 946 947 0
-1740 -950 1287 0
-1740 -950 -900 0
-1740 -950 -901 0
-1740 -950 -902 0
-1740 -950 -1015 0
-1740 -950 -1016 0
-1740 -950 -1017 0
-1740 -950 -1018 0
-1740 -1068 0
-1740 -957 1292 0
-1740 -957 -907 0
-1740 -957 -908 0
-1740 -957 -909 0
-1740 -957 -1021 0
-1740 -957 -1022 0
-1740 -957 -1023 0
-1740 -957 -1024 0
-1740 -1073 0
-1740 -964 1297 0
-1740 -964 -914 0
-1740 -964 -915 0
-1740 -964 -916 0
-1740 -964 -1027 0
-1740 -964 -1028 0
-1740 -964 -1029 0
-1740 -964 -1030 0
-1740 -1078 0
-1740 1279 0
-1741 1105 0
-1741 946 947 948 0
-1741 -950 1287 0
-1741 -950 -901 0
-1741 -950 -902 0
-1741 -950 -903 0
-1741 -950 -1016 0
-1741 -950 -1017 0
-1741 -950 -1018 0
-1741 -950 -1019 0
-1741 -1069 0
-1741 -957 1292 0
-1741 -957 -908 0
-1741 -957 -909 0
-1741 -957 -910 0
-1741 -957 -1022 0
-1741 -957 -1023 0
-1741 -957 -1024 0
-1741 -957 -1025 0
-1741 -1074 0
-1741 -964 1297 0
-1741 -964 -915 0
-1741 -964 -916 0
-1741 -964 -917 0
-1741 -964 -1028 0
-1741 -964 -1029 0
-1741 -964 -1030 0
-1741 -964 -1031 0
-1741 -1079 0
-1741 1280 0
-1742 1105 0
-1742 947 948 949 0
-1742 -950 1287 0
-1742 -950 -902 0
-1742 -950 -903 0
-1742 -950 -904 0
-1742 -950 -1017 0
-1742 -950 -1018 0
-1742 -950 -1019 0
-1742 -1070 0
-1742 -957 1292 0
-1742 -957 -909 0
-1742 -957 -910 0
-1742 -957 -911 0
-1742 -957 -1023 0
-1742 -957 -1024 0
-1742 -957 -1025 0
-1742 -1075 0
-1742 -964 1297 0
-1742 -964 -916 0
-1742 -964 -917 0
-1742 -964 -918 0
-1742 -964 -1029 0
-1742 -964 -1030 0
-1742 -964 -1031 0
-1742 -1080 0
-1742 1281 0
-1743 1105 0
-1743 1003 1004 1005 0
-1743 -1008 1287 0
-1743 -1008 -899 0
-1743 -1008 -900 0
-1743 -1008 -901 0
-1743 -1008 -958 0
-1743 -1008 -959 0
-1743 -1008 -960 0
-1743 -1067 0
-1743 -1014 1292 0
-1743 -1014 -906 0
-1743 -1014 -907 0
-1743 -1014 -908 0
-1743 -1014 -965 0
-1743 -1014 -966 0
-1743 -1014 -967 0
-1743 -1072 0
-1743 -1020 1297 0
-1743 -1020 -913 0
-1743 -1020 -914 0
-1743 -1020 -915 0
-1743 -1020 -972 0
-1743 -1020 -973 0
-1743 -1020 -974 0
-1743 -1077 0
-1743 1278 0
-1744 1105 0
-1744 1003 1004 1005 1006 0
-1744 -1008 1287 0
-1744 -1008 -900 0
-1744 -1008 -901 0
-1744 -1008 -902 0
-1744 -1008 -959 0
-1744 -1008 -960 0
-1744 -1008 -961 0
-1744 -1068 0
-1744 -1014 1292 0
-1744 -1014 -907 0
-1744 -1014 -908 0
-1744 -1014 -909 0
-1744 -1014 -966 0
-1744 -1014 -967 0
-1744 -1014 -968 0
-1744 -1073 0
-1744 -1020 1297 0
-1744 -1020 -914 0
-1744 -1020 -915 0
-1744 -1020 -916 0
-1744 -1020 -973 0
-1744 -1020 -974 0
-1744 -1020 -975 0
-1744 -1078 0
-1744 1279 0
-1745 1105 0
-1745 1004 1005 1006 1007 0
-1745 -1008 1287 0
-1745 -1008 -901 0
-1745 -1008 -902 0
-1745 -1008 -903 0
-1745 -1008 -960 0
-1745 -1008 -961 0
-1745 -1008 -962 0
-1745 -1069 0
-1745 -1014 1292 0
-1745 -1014 -908 0
-1745 -1014 -909 0
-1745 -1014 -910 0
-1745 -1014 -967 0
-1745 -1014 -968 0
-1745 -1014 -969 0
-1745 -1074 0
-1745 -1020 1297 0
-1745 -1020 -915 0
-1745 -1020 -916 0
-1745 -1020 -917 0
-1745 -1020 -974 0
-1745 -1020 -975 0
-1745 -1020 -976 0
-1745 -1079 0
-1745 1280 0
-1746 1105 0
-1746 1005 1006 1007 0
-1746 -1008 1287 0
-1746 -1008 -902 0
-1746 -1008 -903 0
-1746 -1008 -904 0
-1746 -1008 -961 0
-1746 -1008 -962 0
-1746 -1008 -963 0
-1746 -1070 0
-1746 -1014 1292 0
-1746 -1014 -909 0
-1746 -1014 -910 0
-1746 -1014 -911 0
-1746 -1014 -968 0
-1746 -1014 -969 0
-1746 -1014 -970 0
-1746 -1075 0
-1746 -1020 1297 0
-1746 -1020 -916 0
-1746 -1020 -917 0
-1746 -1020 -918 0
-1746 -1020 -975 0
-1746 -1020 -976 0
-1746 -1020 -977 0
-1746 -1080 0
-1746 1281 0
1327 1328 1329 1330 1331 1332 1333 1334 1335 1336 1337 1338 1339 1340 1341 1342 1343 1344 1345 1346 1347 1348 1349 1350 -1 222 0
1327 1328 1329 1330 1331 1332 1333 1334 1335 1336 1337 1338 1339 1340 1341 1342 1343 1344 1345 1346 1347 1348 1349 1350 -222 1 0
1327 1328 1329 1330 1331 1332 1333 1334 1335 1336 1337 1338 1339 1340 1341 1342 1343 1344 1345 1346 1347 1348 1349 1350 -2 223 0
1327 1328 1329 1330 1331 1332 1333 1334 1335 1336 1337 1338 1339 1340 1341 1342 1343 1344 1345 1346 1347 1348 1349 1350 -223 2 0
1327 1328 1329 1330 1331 1332 1333 1334 1335 1336 1337 1338 1339 1340 1341 1342 1343 1344 1345 1346 1347 1348 1349 1350 -3 224 0
1327 1328 1329 1330 1331 1332 1333 1334 1335 1336 1337 1338 1339 1340 1341 1342 1343 1344 1345 1346 1347 1348 1349 1350 -224 3 0
1327 1328 1329 1330 1331 1332 1333 1334 1335 1336 1337 1338 1339 1340 1341 1342 1343 1344 1345 1346 1347 1348 1349 1350 -4 225 0
1327 1328 1329 1330 1331 1332 1333 1334 1335 1336 1337 1338 1339 1340 1341 1342 1343 1344 1345 1346 1347 1348 1349 1350 -225 4 0
1327 1328 1329 1330 1331 1332 1333 1334 1335 1336 1337 1338 1339 1340 1341 1342 1343 1344 1345 1346 1347 1348 1349 1350 -5 226 0
1327 1328 1329 1330 1331 1332 1333 1334 1335 1336 1337 1338 1339 1340 1341 1342 1343 1344 1345 1346 1347 1348 1349 1350 -226 5 0
1327 1328 1329 1330 1331 1332 1333 1334 1335 1336 1337 1338 1339 1340 1341 1342 1343 1344 1345 1346 1347 1348 1349 1350 -6 227 0
1327 1328 1329 1330 1331 1332 1333 1334 1335 1336 1337 1338 1339 1340 1341 1342 1343 1344 1345 1346 1347 1348 1349 1350 -227 6 0
1327 1328 1329 1330 1331 1332 1333 1334 1335 1336 1337 1338 1339 1340 1341 1342 1343 1344 1345 1346 1347 1348 1349 1350 -7 228 0
1327 1328 1329 1330 1331 1332 1333 1334 1335 1336 1337 1338 1339 1340 1341 1342 1343 1344 1345 1346 1347 1348 1349 1350 -228 7 0
1327 1328 1329 1330 1331 1332 1333 1334 1335 1336 1337 1338 1339 1340 1341 1342 1343 1344 1345 1346 1347 1348 1349 1350 -14 235 0
1327 1328 1329 1330 1331 1332 1333 1334 1335 1336 1337 1338 1339 1340 1341 1342 1343 1344 1345 1346 1347 1348 1349 1350 -235 14 0
1327 1328 1329 1330 1331 1332 1333 1334 1335 1336 1337 1338 1339 1340 1341 1342 1343 1344 1345 1346 1347 1348 1349 1350 -21 242 0
1327 1328 1329 1330 1331 1332 1333 1334 1335 1336 1337 1338 1339 1340 1341 1342 1343 1344 1345 1346 1347 1348 1349 1350 -242 21 0
1327 1328 1329 1330 1331 1332 1333 1334 1335 1336 1337 1338 1339 1340 1341 1342 1343 1344 1345 1346 1347 1348 1349 1350 -28 249 0
1327 1328 1329 1330 1331 1332 1333 1334 1335 1336 1337 1338 1339 1340 1341 1342 1343 1344 1345 1346 1347 1348 1349 1350 -249 28 0
1351 1352 1353 1354 1355 1356 1357 1358 1359 1360 1361 1362 1363 1364 1365 1366 1367 1368 1369 1370 1371 1372 1373 1374 -60 281 0
1351 1352 1353 1354 1355 1356 1357 1358 1359 1360 1361 1362 1363 1364 1365 1366 1367 1368 1369 1370 1371 1372 1373 1374 -281 60 0
1351 1352 1353 1354 1355 1356 1357 1358 1359 1360 1361 1362 1363 1364 1365 1366 1367 1368 1369 1370 1371 1372 1373 1374 -61 282 0
1351 1352 1353 1354 1355 1356 1357 1358 1359 1360 1361 1362 1363 1364 1365 1366 1367 1368 1369 1370 1371 1372 1373 1374 -282 61 0
1351 1352 1353 1354 1355 1356 1357 1358 1359 1360 1361 1362 1363 1364 1365 1366 1367 1368 1369 1370 1371 1372 1373 1374 -62 283 0
1351 1352 1353 1354 1355 1356 1357 1358 1359 1360 1361 1362 1363 1364 1365 1366 1367 1368 1369 1370 1371 1372 1373 1374 -283 62 0
1351 1352 1353 1354 1355 1356 1357 1358 1359 1360 1361 1362 1363 1364 1365 1366 1367 1368 1369 1370 1371 1372 1373 1374 -63 284 0
1351 1352 1353 1354 1355 1356 1357 1358 1359 1360 1361 1362 1363 1364 1365 1366 1367 1368 1369 1370 1371 1372 1373 1374 -284 63 0
1351 1352 1353 1354 1355 1356 1357 1358 1359 1360 1361 1362 1363 1364 1365 1366 1367 1368 1369 1370 1371 1372 1373 1374 -64 285 0
1351 1352 1353 1354 1355 1356 1357 1358 1359 1360 1361 1362 1363 1364 1365 1366 1367 1368 1369 1370 1371 1372 1373 1374 -285 64 0
1351 1352 1353 1354 1355 1356 1357 1358 1359 1360 1361 1362 1363 1364 1365 1366 1367 1368 1369 1370 1371 1372 1373 1374 -65 286 0
1351 1352 1353 1354 1355 1356 1357 1358 1359 1360 1361 1362 1363 1364 1365 1366 1367 1368 1369 1370 1371 1372 1373 1374 -286 65 0
1351 1352 1353 1354 1355 1356 1357 1358 1359 1360 1361 1362 1363 1364 1365 1366 1367 1368 1369 1370 1371 1372 1373 1374 -66 287 0
1351 1352 1353 1354 1355 1356 1357 1358 1359 1360 1361 1362 1363 1364 1365 1366 1367 1368 1369 1370 1371 1372 1373 1374 -287 66 0
1351 1352 1353 1354 1355 1356 1357 1358 1359 1360 1361 1362 1363 1364 1365 1366 1367 1368 1369 1370 1371 1372 1373 1374 -73 294 0
1351 1352 1353 1354 1355 1356 1357 1358 1359 1360 1361 1362 1363 1364 1365 1366 1367 1368 1369 1370 1371 1372 1373 1374 -294 73 0
1351 1352 1353 1354 1355 1356 1357 1358 1359 1360 1361 1362 1363 1364 1365 1366 1367 1368 1369 1370 1371 1372 1373 1374 -80 301 0
1351 1352 1353 1354 1355 1356 1357 1358 1359 1360 1361 1362 1363 1364 1365 1366 1367 1368 1369 1370 1371 1372 1373 1374 -301 80 0
1351 1352 1353 1354 1355 1356 1357 1358 1359 1360 1361 1362 1363 1364 1365 1366 1367 1368 1369 1370 1371 1372 1373 1374 -87 308 0
1351 1352 1353 1354 1355 1356 1357 1358 1359 1360 1361 1362 1363 1364 1365 1366 1367 1368 1369 1370 1371 1372 1373 1374 -308 87 0
1375 1376 1377 1378 1379 1380 1381 1382 1383 1384 1385 1386 1387 1388 1389 1390 1391 1392 1393 1394 -119 340 0
1375 1376 1377 1378 1379 1380 1381 1382 1383 1384 1385 1386 1387 1388 1389 1390 1391 1392 1393 1394 -340 119 0
1375 1376 1377 1378 1379 1380 1381 1382 1383 1384 1385 1386 1387 1388 1389 1390 1391 1392 1393 1394 -120 341 0
1375 1376 1377 1378 1379 1380 1381 1382 1383 1384 1385 1386 1387 1388 1389 1390 1391 1392 1393 1394 -341 120 0
1375 1376 1377 1378 1379 1380 1381 1382 1383 1384 1385 1386 1387 1388 1389 1390 1391 1392 1393 1394 -121 342 0
1375 1376 1377 1378 1379 1380 1381 1382 1383 1384 1385 1386 1387 1388 1389 1390 1391 1392 1393 1394 -342 121 0
1375 1376 1377 1378 1379 1380 1381 1382 1383 1384 1385 1386 1387 1388 1389 1390 1391 1392 1393 1394 -122 343 0
1375 1376 1377 1378 1379 1380 1381 1382 1383 1384 1385 1386 1387 1388 1389 1390 1391 1392 1393 1394 -343 122 0
1375 1376 1377 1378 1379 1380 1381 1382 1383 1384 1385 1386 1387 1388 1389 1390 1391 1392 1393 1394 -123 344 0
1375 1376 1377 1378 1379 1380 1381 1382 1383 1384 1385 1386 1387 1388 1389 1390 1391 1392 1393 1394 -344 123 0
1375 1376 1377 1378 1379 1380 1381 1382 1383 1384 1385 1386 1387 1388 1389 1390 1391 1392 1393 1394 -124 345 0
1375 1376 1377 1378 1379 1380 1381 1382 1383 1384 1385 1386 1387 1388 1389 1390 1391 1392 1393 1394 -345 124 0
1375 1376 1377 1378 1379 1380 1381 1382 1383 1384 1385 1386 1387 1388 1389 1390 1391 1392 1393 1394 -130 351 0
1375 1376 1377 1378 1379 1380 1381 1382 1383 1384 1385 1386 1387 1388 1389 1390 1391 1392 1393 1394 -351 130 0
1375 1376 1377 1378 1379 1380 1381 1382 1383 1384 1385 1386 1387 1388 1389 1390 1391 1392 1393 1394 -136 357 0
1375 1376 1377 1378 1379 1380 1381 1382 1383 1384 1385 1386 1387 1388 1389 1390 1391 1392 1393 1394 -357 136 0
1375 1376 1377 1378 1379 1380 1381 1382 1383 1384 1385 1386 1387 1388 1389 1390 1391 1392 1393 1394 -142 363 0
1375 1376 1377 1378 1379 1380 1381 1382 1383 1384 1385 1386 1387 1388 1389 1390 1391 1392 1393 1394 -363 142 0
1395 1396 1397 1398 1399 1400 1401 1402 1403 1404 1405 1406 1407 1408 1409 1410 -173 394 0
1395 1396 1397 1398 1399 1400 1401 1402 1403 1404 1405 1406 1407 1408 1409 1410 -394 173 0
1395 1396 1397 1398 1399 1400 1401 1402 1403 1404 1405 1406 1407 1408 1409 1410 -174 395 0
1395 1396 1397 1398 1399 1400 1401 1402 1403 1404 1405 1406 1407 1408 1409 1410 -395 174 0
1395 1396 1397 1398 1399 1400 1401 1402 1403 1404 1405 1406 1407 1408 1409 1410 -175 396 0
1395 1396 1397 1398 1399 1400 1401 1402 1403 1404 1405 1406 1407 1408 1409 1410 -396 175 0
1395 1396 1397 1398 1399 1400 1401 1402 1403 1404 1405 1406 1407 1408 1409 1410 -176 397 0
1395 1396 1397 1398 1399 1400 1401 1402 1403 1404 1405 1406 1407 1408 1409 1410 -397 176 0
1395 1396 1397 1398 1399 1400 1401 1402 1403 1404 1405 1406 1407 1408 1409 1410 -177 398 0
1395 1396 1397 1398 1399 1400 1401 1402 1403 1404 1405 1406 1407 1408 1409 1410 -398 177 0
1395 1396 1397 1398 1399 1400 1401 1402 1403 1404 1405 1406 1407 1408 1409 1410 -182 403 0
1395 1396 1397 1398 1399 1400 1401 1402 1403 1404 1405 1406 1407 1408 1409 1410 -403 182 0
1395 1396 1397 1398 1399 1400 1401 1402 1403 1404 1405 1406 1407 1408 1409 1410 -187 408 0
1395 1396 1397 1398 1399 1400 1401 1402 1403 1404 1405 1406 1407 1408 1409 1410 -408 187 0
1395 1396 1397 1398 1399 1400 1401 1402 1403 1404 1405 1406 1407 1408 1409 1410 -192 413 0
1395 1396 1397 1398 1399 1400 1401 1402 1403 1404 1405 1406 1407 1408 1409 1410 -413 192 0
1411 1412 1413 1414 1415 1416 1417 1418 1419 1420 1421 1422 1423 1424 1425 1426 1427 1428 1429 1430 1431 1432 1433 1434 -222 443 0
1411 1412 1413 1414 1415 1416 1417 1418 1419 1420 1421 1422 1423 1424 1425 1426 1427 1428 1429 1430 1431 1432 1433 1434 -443 222 0
1411 1412 1413 1414 1415 1416 1417 1418 1419 1420 1421 1422 1423 1424 1425 1426 1427 1428 1429 1430 1431 1432 1433 1434 -223 444 0
1411 1412 1413 1414 1415 1416 1417 1418 1419 1420 1421 1422 1423 1424 1425 1426 1427 1428 1429 1430 1431 1432 1433 1434 -444 223 0
1411 1412 1413 1414 1415 1416 1417 1418 1419 1420 1421 1422 1423 1424 1425 1426 1427 1428 1429 1430 1431 1432 1433 1434 -224 445 0
1411 1412 1413 1414 1415 1416 1417 1418 1419 1420 1421 1422 1423 1424 1425 1426 1427 1428 1429 1430 1431 1432 1433 1434 -445 224 0
1411 1412 1413 1414 1415 1416 1417 1418 1419 1420 1421 1422 1423 1424 1425 1426 1427 1428 1429 1430 1431 1432 1433 1434 -225 446 0
1411 1412 1413 1414 1415 1416 1417 1418 1419 1420 1421 1422 1423 1424 1425 1426 1427 1428 1429 1430 1431 1432 1433 1434 -446 225 0
1411 1412 1413 1414 1415 1416 1417 1418 1419 1420 1421 1422 1423 1424 1425 1426 1427 1428 1429 1430 1431 1432 1433 1434 -226 447 0
1411 1412 1413 1414 1415 1416 1417 1418 1419 1420 1421 1422 1423 1424 1425 1426 1427 1428 1429 1430 1431 1432 1433 1434 -447 226 0
1411 1412 1413 1414 1415 1416 1417 1418 1419 1420 1421 1422 1423 1424 1425 1426 1427 1428 1429 1430 1431 1432 1433 1434 -227 448 0
1411 1412 1413 1414 1415 1416 1417 1418 1419 1420 1421 1422 1423 1424 1425 1426 1427 1428 1429 1430 1431 1432 1433 1434 -448 227 0
1411 1412 1413 1414 1415 1416 1417 1418 1419 1420 1421 1422 1423 1424 1425 1426 1427 1428 1429 1430 1431 1432 1433 1434 -228 449 0
1411 1412 1413 1414 1415 1416 1417 1418 1419 1420 1421 1422 1423 1424 1425 1426 1427 1428 1429 1430 1431 1432 1433 1434 -449 228 0
1411 1412 1413 1414 1415 1416 1417 1418 1419 1420 1421 1422 1423 1424 1425 1426 1427 1428 1429 1430 1431 1432 1433 1434 -235 456 0
1411 1412 1413 1414 1415 1416 1417 1418 1419 1420 1421 1422 1423 1424 1425 1426 1427 1428 1429 1430 1431 1432 1433 1434 -456 235 0
1411 1412 1413 1414 1415 1416 1417 1418 1419 1420 1421 1422 1423 1424 1425 1426 1427 1428 1429 1430 1431 1432 1433 1434 -242 463 0
1411 1412 1413 1414 1415 1416 1417 1418 1419 1420 1421 1422 1423 1424 1425 1426 1427 1428 1429 1430 1431 1432 1433 1434 -463 242 0
1411 1412 1413 1414 1415 1416 1417 1418 1419 1420 1421 1422 1423 1424 1425 1426 1427 1428 1429 1430 1431 1432 1433 1434 -249 470 0
1411 1412 1413 1414 1415 1416 1417 1418 1419 1420 1421 1422 1423 1424 1425 1426 1427 1428 1429 1430 1431 1432 1433 1434 -470 249 0
1435 1436 1437 1438 1439 1440 1441 1442 1443 1444 1445 1446 1447 1448 1449 1450 1451 1452 1453 1454 1455 1456 1457 1458 -281 502 0
1435 1436 1437 1438 1439 1440 1441 1442 1443 1444 1445 1446 1447 1448 1449 1450 1451 1452 1453 1454 1455 1456 1457 1458 -502 281 0
1435 1436 1437 1438 1439 1440 1441 1442 1443 1444 1445 1446 1447 1448 1449 1450 1451 1452 1453 1454 1455 1456 1457 1458 -282 503 0
1435 1436 1437 1438 1439 1440 1441 1442 1443 1444 1445 1446 1447 1448 1449 1450 1451 1452 1453 1454 1455 1456 1457 1458 -503 282 0
1435 1436 1437 1438 1439 1440 1441 1442 1443 1444 1445 1446 1447 1448 1449 1450 1451 1452 1453 1454 1455 1456 1457 1458 -283 504 0
1435 1436 1437 1438 1439 1440 1441 1442 1443 1444 1445 1446 1447 1448 1449 1450 1451 1452 1453 1454 1455 1456 1457 1458 -504 283 0
1435 1436 1437 1438 1439 1440 1441 1442 1443 1444 1445 1446 1447 1448 1449 1450 1451 1452 1453 1454 1455 1456 1457 1458 -284 505 0
1435 1436 1437 1438 1439 1440 1441 1442 1443 1444 1445 1446 1447 1448 1449 1450 1451 1452 1453 1454 1455 1456 1457 1458 -505 284 0
1435 1436 1437 1438 1439 1440 1441 1442 1443 1444 1445 1446 1447 1448 1449 1450 1451 1452 1453 1454 1455 1456 1457 1458 -285 506 0
1435 1436 1437 1438 1439 1440 1441 1442 1443 1444 1445 1446 1447 1448 1449 1450 1451 1452 1453 1454 1455 1456 1457 1458 -506 285 0
1435 1436 1437 1438 1439 1440 1441 1442 1443 1444 1445 1446 1447 1448 1449 1450 1451 1452 1453 1454 1455 1456 1457 1458 -286 507 0
1435 1436 1437 1438 1439 1440 1441 1442 1443 1444 1445 1446 1447 1448 1449 1450 1451 1452 1453 1454 1455 1456 1457 1458 -507 286 0
1435 1436 1437 1438 1439 1440 1441 1442 1443 1444 1445 1446 1447 1448 1449 1450 1451 1452 1453 1454 1455 1456 1457 1458 -287 508 0
1435 1436 1437 1438 1439 1440 1441 1442 1443 1444 1445 1446 1447 1448 1449 1450 1451 1452 1453 1454 1455 1456 1457 1458 -508 287 0
1435 1436 1437 1438 1439 1440 1441 1442 1443 1444 1445 1446 1447 1448 1449 1450 1451 1452 1453 1454 1455 1456 1457 1458 -294 515 0
1435 1436 1437 1438 1439 1440 1441 1442 1443 1444 1445 1446 1447 1448 1449 1450 1451 1452 1453 1454 1455 1456 1457 1458 -515 294 0
1435 1436 1437 1438 1439 1440 1441 1442 1443 1444 1445 1446 1447 1448 1449 1450 1451 1452 1453 1454 1455 1456 1457 1458 -301 522 0
1435 1436 1437 1438 1439 1440 1441 1442 1443 1444 1445 1446 1447 1448 1449 1450 1451 1452 1453 1454 1455 1456 1457 1458 -522 301 0
1435 1436 1437 1438 1439 1440 1441 1442 1443 1444 1445 1446 1447 1448 1449 1450 1451 1452 1453 1454 1455 1456 1457 1458 -308 529 0
1435 1436 1437 1438 1439 1440 1441 1442 1443 1444 1445 1446 1447 1448 1449 1450 1451 1452 1453 1454 1455 1456 1457 1458 -529 308 0
1459 1460 1461 1462 1463 1464 1465 1466 1467 1468 1469 1470 1471 1472 1473 1474 1475 1476 1477 1478 -340 561 0
1459 1460 1461 1462 1463 1464 1465 1466 1467 1468 1469 1470 1471 1472 1473 1474 1475 1476 1477 1478 -561 340 0
1459 1460 1461 1462 1463 1464 1465 1466 1467 1468 1469 1470 1471 1472 1473 1474 1475 1476 1477 1478 -341 562 0
1459 1460 1461 1462 1463 1464 1465 1466 1467 1468 1469 1470 1471 1472 1473 1474 1475 1476 1477 1478 -562 341 0
1459 1460 1461 1462 1463 1464 1465 1466 1467 1468 1469 1470 1471 1472 1473 1474 1475 1476 1477 1478 -342 563 0
1459 1460 1461 1462 1463 1464 1465 1466 1467 1468 1469 1470 1471 1472 1473 1474 1475 1476 1477 1478 -563 342 0
1459 1460 1461 1462 1463 1464 1465 1466 1467 1468 1469 1470 1471 1472 1473 1474 1475 1476 1477 1478 -343 564 0
1459 1460 1461 1462 1463 1464 1465 1466 1467 1468 1469 1470 1471 1472 1473 1474 1475 1476 1477 1478 -564 343 0
1459 1460 1461 1462 1463 1464 1465 1466 1467 1468 1469 1470 1471 1472 1473 1474 1475 1476 1477 1478 -344 565 0
1459 1460 1461 1462 1463 1464 1465 1466 1467 1468 1469 1470 1471 1472 1473 1474 1475 1476 1477 1478 -565 344 0
1459 1460 1461 1462 1463 1464 1465 1466 1467 1468 1469 1470 1471 1472 1473 1474 1475 1476 1477 1478 -345 566 0
1459 1460 1461 1462 1463 1464 1465 1466 1467 1468 1469 1470 1471 1472 1473 1474 1475 1476 1477 1478 -566 345 0
1459 1460 1461 1462 1463 1464 1465 1466 1467 1468 1469 1470 1471 1472 1473 1474 1475 1476 1477 1478 -351 572 0
1459 1460 1461 1462 1463 1464 1465 1466 1467 1468 1469 1470 1471 1472 1473 1474 1475 1476 1477 1478 -572 351 0
1459 1460 1461 1462 1463 1464 1465 1466 1467 1468 1469 1470 1471 1472 1473 1474 1475 1476 1477 1478 -357 578 0
1459 1460 1461 1462 1463 1464 1465 1466 1467 1468 1469 1470 1471 1472 1473 1474 1475 1476 1477 1478 -578 357 0
1459 1460 1461 1462 1463 1464 1465 1466 1467 1468 1469 1470 1471 1472 1473 1474 1475 1476 1477 1478 -363 584 0
1459 1460 1461 1462 1463 1464 1465 1466 1467 1468 1469 1470 1471 1472 1473 1474 1475 1476 1477 1478 -584 363 0
1479 1480 1481 1482 1483 1484 1485 1486 1487 1488 1489 1490 1491 1492 1493 1494 -394 615 0
1479 1480 1481 1482 1483 1484 1485 1486 1487 1488 1489 1490 1491 1492 1493 1494 -615 394 0
1479 1480 1481 1482 1483 1484 1485 1486 1487 1488 1489 1490 1491 1492 1493 1494 -395 616 0
1479 1480 1481 1482 1483 1484 1485 1486 1487 1488 1489 1490 1491 1492 1493 1494 -616 395 0
1479 1480 1481 1482 1483 1484 1485 1486 1487 1488 1489 1490 1491 1492 1493 1494 -396 617 0
1479 1480 1481 1482 1483 1484 1485 1486 1487 1488 1489 1490 1491 1492 1493 1494 -617 396 0
1479 1480 1481 1482 1483 1484 1485 1486 1487 1488 1489 1490 1491 1492 1493 1494 -397 618 0
1479 1480 1481 1482 1483 1484 1485 1486 1487 1488 1489 1490 1491 1492 1493 1494 -618 397 0
1479 1480 1481 1482 1483 1484 1485 1486 1487 1488 1489 1490 1491 1492 1493 1494 -398 619 0
1479 1480 1481 1482 1483 1484 1485 1486 1487 1488 1489 1490 1491 1492 1493 1494 -619 398 0
1479 1480 1481 1482 1483 1484 1485 1486 1487 1488 1489 1490 1491 1492 1493 1494 -403 624 0
1479 1480 1481 1482 1483 1484 1485 1486 1487 1488 1489 1490 1491 1492 1493 1494 -624 403 0
1479 1480 1481 1482 1483 1484 1485 1486 1487 1488 1489 1490 1491 1492 1493 1494 -408 629 0
1479 1480 1481 1482 1483 1484 1485 1486 1487 1488 1489 1490 1491 1492 1493 1494 -629 408 0
1479 1480 1481 1482 1483 1484 1485 1486 1487 1488 1489 1490 1491 1492 1493 1494 -413 634 0
1479 1480 1481 1482 1483 1484 1485 1486 1487 1488 1489 1490 1491 1492 1493 1494 -634 413 0
1495 1496 1497 1498 1499 1500 1501 1502 1503 1504 1505 1506 1507 1508 1509 1510 1511 1512 1513 1514 1515 1516 1517 1518 -443 664 0
1495 1496 1497 1498 1499 1500 1501 1502 1503 1504 1505 1506 1507 1508 1509 1510 1511 1512 1513 1514 1515 1516 1517 1518 -664 443 0
1495 1496 1497 1498 1499 1500 1501 1502 1503 1504 1505 1506 1507 1508 1509 1510 1511 1512 1513 1514 1515 1516 1517 1518 -444 665 0
1495 1496 1497 1498 1499 1500 1501 1502 1503 1504 1505 1506 1507 1508 1509 1510 1511 1512 1513 1514 1515 1516 1517 1518 -665 444 0
1495 1496 1497 1498 1499 1500 1501 1502 1503 1504 1505 1506 1507 1508 1509 1510 1511 1512 1513 1514 1515 1516 1517 1518 -445 666 0
1495 1496 1497 1498 1499 1500 1501 1502 1503 1504 1505 1506 1507 1508 1509 1510 1511 1512 1513 1514 1515 1516 1517 1518 -666 445 0
1495 1496 1497 1498 1499 1500 1501 1502 1503 1504 1505 1506 1507 1508 1509 1510 1511 1512 1513 1514 1515 1516 1517 1518 -446 667 0
1495 1496 1497 1498 1499 1500 1501 1502 1503 1504 1505 1506 1507 1508 1509 1510 1511 1512 1513 1514 1515 1516 1517 1518 -667 446 0
1495 1496 1497 1498 1499 1500 1501 1502 1503 1504 1505 1506 1507 1508 1509 1510 1511 1512 1513 1514 1515 1516 1517 1518 -447 668 0
1495 1496 1497 1498 1499 1500 1501 1502 1503 1504 1505 1506 1507 1508 1509 1510 1511 1512 1513 1514 1515 1516 1517 1518 -668 447 0
1495 1496 1497 1498 1499 1500 1501 1502 1503 1504 1505 1506 1507 1508 1509 1510 1511 1512 1513 1514 1515 1516 1517 1518 -448 669 0
1495 1496 1497 1498 1499 1500 1501 1502 1503 1504 1505 1506 1507 1508 1509 1510 1511 1512 1513 1514 1515 1516 1517 1518 -669 448 0
1495 1496 1497 1498 1499 1500 1501 1502 1503 1504 1505 1506 1507 1508 1509 1510 1511 1512 1513 1514 1515 1516 1517 1518 -449 670 0
1495 1496 1497 1498 1499 1500 1501 1502 1503 1504 1505 1506 1507 1508 1509 1510 1511 1512 1513 1514 1515 1516 1517 1518 -670 449 0
1495 1496 1497 1498 1499 1500 1501 1502 1503 1504 1505 1506 1507 1508 1509 1510 1511 1512 1513 1514 1515 1516 1517 1518 -456 677 0
1495 1496 1497 1498 1499 1500 1501 1502 1503 1504 1505 1506 1507 1508 1509 1510 1511 1512 1513 1514 1515 1516 1517 1518 -677 456 0
1495 1496 1497 1498 1499 1500 1501 1502 1503 1504 1505 1506 1507 1508 1509 1510 1511 1512 1513 1514 1515 1516 1517 1518 -463 684 0
1495 1496 1497 1498 1499 1500 1501 1502 1503 1504 1505 1506 1507 1508 1509 1510 1511 1512 1513 1514 1515 1516 1517 1518 -684 463 0
1495 1496 1497 1498 1499 1500 1501 1502 1503 1504 1505 1506 1507 1508 1509 1510 1511 1512 1513 1514 1515 1516 1517 1518 -470 691 0
1495 1496 1497 1498 1499 1500 1501 1502 1503 1504 1505 1506 1507 1508 1509 1510 1511 1512 1513 1514 1515 1516 1517 1518 -691 470 0
1519 1520 1521 1522 1523 1524 1525 1526 1527 1528 1529 1530 1531 1532 1533 1534 1535 1536 1537 1538 1539 1540 1541 1542 -502 723 0
1519 1520 1521 1522 1523 1524 1525 1526 1527 1528 1529 1530 1531 1532 1533 1534 1535 1536 1537 1538 1539 1540 1541 1542 -723 502 0
1519 1520 1521 1522 1523 1524 1525 1526 1527 1528 1529 1530 1531 1532 1533 1534 1535 1536 1537 1538 1539 1540 1541 1542 -503 724 0
1519 1520 1521 1522 1523 1524 1525 1526 1527 1528 1529 1530 1531 1532 1533 1534 1535 1536 1537 1538 1539 1540 1541 1542 -724 503 0
1519 1520 1521 1522 1523 1524 1525 1526 1527 1528 1529 1530 1531 1532 1533 1534 1535 1536 1537 1538 1539 1540 1541 1542 -504 725 0
1519 1520 1521 1522 1523 1524 1525 1526 1527 1528 1529 1530 1531 1532 1533 1534 1535 1536 1537 1538 1539 1540 1541 1542 -725 504 0
1519 1520 1521 1522 1523 1524 1525 1526 1527 1528 1529 1530 1531 1532 1533 1534 1535 1536 1537 1538 1539 1540 1541 1542 -505 726 0
1519 1520 1521 1522 1523 1524 1525 1526 1527 1528 1529 1530 1531 1532 1533 1534 1535 1536 1537 1538 1539 1540 1541 1542 -726 505 0
1519 1520 1521 1522 1523 1524 1525 1526 1527 1528 1529 1530 1531 1532 1533 1534 1535 1536 1537 1538 1539 1540 1541 1542 -506 727 0
1519 1520 1521 1522 1523 1524 1525 1526 1527 1528 1529 1530 1531 1532 1533 1534 1535 1536 1537 1538 1539 1540 1541 1542 -727 506 0
1519 1520 1521 1522 1523 1524 1525 1526 1527 1528 1529 1530 1531 1532 1533 1534 1535 1536 1537 1538 1539 1540 1541 1542 -507 728 0
1519 1520 1521 1522 1523 1524 1525 1526 1527 1528 1529 1530 1531 1532 1533 1534 1535 1536 1537 1538 1539 1540 1541 1542 -728 507 0
1519 1520 1521 1522 1523 1524 1525 1526 1527 1528 1529 1530 1531 1532 1533 1534 1535 1536 1537 1538 1539 1540 1541 1542 -508 729 0
1519 1520 1521 1522 1523 1524 1525 1526 1527 1528 1529 1530 1531 1532 1533 1534 1535 1536 1537 1538 1539 1540 1541 1542 -729 508 0
1519 1520 1521 1522 1523 1524 1525 1526 1527 1528 1529 1530 1531 1532 1533 1534 1535 1536 1537 1538 1539 1540 1541 1542 -515 736 0
1519 1520 1521 1522 1523 1524 1525 1526 1527 1528 1529 1530 1531 1532 1533 1534 1535 1536 1537 1538 1539 1540 1541 1542 -736 515 0
1519 1520 1521 1522 1523 1524 1525 1526 1527 1528 1529 1530 1531 1532 1533 1534 1535 1536 1537 1538 1539 1540 1541 1542 -522 743 0
1519 1520 1521 1522 1523 1524 1525 1526 1527 1528 1529 1530 1531 1532 1533 1534 1535 1536 1537 1538 1539 1540 1541 1542 -743 522 0
1519 1520 1521 1522 1523 1524 1525 1526 1527 1528 1529 1530 1531 1532 1533 1534 1535 1536 1537 1538 1539 1540 1541 1542 -529 750 0
1519 1520 1521 1522 1523 1524 1525 1526 1527 1528 1529 1530 1531 1532 1533 1534 1535 1536 1537 1538 1539 1540 1541 1542 -750 529 0
1543 1544 1545 1546 1547 1548 1549 1550 1551 1552 1553 1554 1555 1556 1557 1558 1559 1560 1561 1562 -561 782 0
1543 1544 1545 1546 1547 1548 1549 1550 1551 1552 1553 1554 1555 1556 1557 1558 1559 1560 1561 1562 -782 561 0
1543 1544 1545 1546 1547 1548 1549 1550 1551 1552 1553 1554 1555 1556 1557 1558 1559 1560 1561 1562 -562 783 0
1543 1544 1545 1546 1547 1548 1549 1550 1551 1552 1553 1554 1555 1556 1557 1558 1559 1560 1561 1562 -783 562 0
1543 1544 1545 1546 1547 1548 1549 1550 1551 1552 1553 1554 1555 1556 1557 1558 1559 1560 1561 1562 -563 784 0
1543 1544 1545 1546 1547 1548 1549 1550 1551 1552 1553 1554 1555 1556 1557 1558 1559 1560 1561 1562 -784 563 0
1543 1544 1545 1546 1547 1548 1549 1550 1551 1552 1553 1554 1555 1556 1557 1558 1559 1560 1561 1562 -564 785 0
1543 1544 1545 1546 1547 1548 1549 1550 1551 1552 1553 1554 1555 1556 1557 1558 1559 1560 1561 1562 -785 564 0
1543 1544 1545 1546 1547 1548 1549 1550 1551 1552 1553 1554 1555 1556 1557 1558 1559 1560 1561 1562 -565 786 0
1543 1544 1545 1546 1547 1548 1549 1550 1551 1552 1553 1554 1555 1556 1557 1558 1559 1560 1561 1562 -786 565 0
1543 1544 1545 1546 1547 1548 1549 1550 1551 1552 1553 1554 1555 1556 1557 1558 1559 1560 1561 1562 -566 787 0
1543 1544 1545 1546 1547 1548 1549 1550 1551 1552 1553 1554 1555 1556 1557 1558 1559 1560 1561 1562 -787 566 0
1543 1544 1545 1546 1547 1548 1549 1550 1551 1552 1553 1554 1555 1556 1557 1558 1559 1560 1561 1562 -572 793 0
1543 1544 1545 1546 1547 1548 1549 1550 1551 1552 1553 1554 1555 1556 1557 1558 1559 1560 1561 1562 -793 572 0
1543 1544 1545 1546 1547 1548 1549 1550 1551 1552 1553 1554 1555 1556 1557 1558 1559 1560 1561 1562 -578 799 0
1543 1544 1545 1546 1547 1548 1549 1550 1551 1552 1553 1554 1555 1556 1557 1558 1559 1560 1561 1562 -799 578 0
1543 1544 1545 1546 1547 1548 1549 1550 1551 1552 1553 1554 1555 1556 1557 1558 1559 1560 1561 1562 -584 805 0
1543 1544 1545 1546 1547 1548 1549 1550 1551 1552 1553 1554 1555 1556 1557 1558 1559 1560 1561 1562 -805 584 0
1563 1564 1565 1566 1567 1568 1569 1570 1571 1572 1573 1574 1575 1576 1577 1578 -615 836 0
1563 1564 1565 1566 1567 1568 1569 1570 1571 1572 1573 1574 1575 1576 1577 1578 -836 615 0
1563 1564 1565 1566 1567 1568 1569 1570 1571 1572 1573 1574 1575 1576 1577 1578 -616 837 0
1563 1564 1565 1566 1567 1568 1569 1570 1571 1572 1573 1574 1575 1576 1577 1578 -837 616 0
1563 1564 1565 1566 1567 1568 1569 1570 1571 1572 1573 1574 1575 1576 1577 1578 -617 838 0
1563 1564 1565 1566 1567 1568 1569 1570 1571 1572 1573 1574 1575 1576 1577 1578 -838 617 0
1563 1564 1565 1566 1567 1568 1569 1570 1571 1572 1573 1574 1575 1576 1577 1578 -618 839 0
1563 1564 1565 1566 1567 1568 1569 1570 1571 1572 1573 1574 1575 1576 1577 1578 -839 618 0
1563 1564 1565 1566 1567 1568 1569 1570 1571 1572 1573 1574 1575 1576 1577 1578 -619 840 0
1563 1564 1565 1566 1567 1568 1569 1570 1571 1572 1573 1574 1575 1576 1577 1578 -840 619 0
1563 1564 1565 1566 1567 1568 1569 1570 1571 1572 1573 1574 1575 1576 1577 1578 -624 845 0
1563 1564 1565 1566 1567 1568 1569 1570 1571 1572 1573 1574 1575 1576 1577 1578 -845 624 0
1563 1564 1565 1566 1567 1568 1569 1570 1571 1572 1573 1574 1575 1576 1577 1578 -629 850 0
1563 1564 1565 1566 1567 1568 1569 1570 1571 1572 1573 1574 1575 1576 1577 1578 -850 629 0
1563 1564 1565 1566 1567 1568 1569 1570 1571 1572 1573 1574 1575 1576 1577 1578 -634 855 0
1563 1564 1565 1566 1567 1568 1569 1570 1571 1572 1573 1574 1575 1576 1577 1578 -855 634 0
1579 1580 1581 1582 1583 1584 1585 1586 1587 1588 1589 1590 1591 1592 1593 1594 1595 1596 1597 1598 1599 1600 1601 1602 -664 885 0
1579 1580 1581 1582 1583 1584 1585 1586 1587 1588 1589 1590 1591 1592 1593 1594 1595 1596 1597 1598 1599 1600 1601 1602 -885 664 0
1579 1580 1581 1582 1583 1584 1585 1586 1587 1588 1589 1590 1591 1592 1593 1594 1595 1596 1597 1598 1599 1600 1601 1602 -665 886 0
1579 1580 1581 1582 1583 1584 1585 1586 1587 1588 1589 1590 1591 1592 1593 1594 1595 1596 1597 1598 1599 1600 1601 1602 -886 665 0
1579 1580 1581 1582 1583 1584 1585 1586 1587 1588 1589 1590 1591 1592 1593 1594 1595 1596 1597 1598 1599 1600 1601 1602 -666 887 0
1579 1580 1581 1582 1583 1584 1585 1586 1587 1588 1589 1590 1591 1592 1593 1594 1595 1596 1597 1598 1599 1600 1601 1602 -887 666 0
1579 1580 1581 1582 1583 1584 1585 1586 1587 1588 1589 1590 1591 1592 1593 1594 1595 1596 1597 1598 1599 1600 1601 1602 -667 888 0
1579 1580 1581 1582 1583 1584 1585 1586 1587 1588 1589 1590 1591 1592 1593 1594 1595 1596 1597 1598 1599 1600 1601 1602 -888 667 0
1579 1580 1581 1582 1583 1584 1585 1586 1587 1588 1589 1590 1591 1592 1593 1594 1595 1596 1597 1598 1599 1600 1601 1602 -668 889 0
1579 1580 1581 1582 1583 1584 1585 1586 1587 1588 1589 1590 1591 1592 1593 1594 1595 1596 1597 1598 1599 1600 1601 1602 -889 668 0
1579 1580 1581 1582 1583 1584 1585 1586 1587 1588 1589 1590 1591 1592 1593 1594 1595 1596 1597 1598 1599 1600 1601 1602 -669 890 0
1579 1580 1581 1582 1583 1584 1585 1586 1587 1588 1589 1590 1591 1592 1593 1594 1595 1596 1597 1598 1599 1600 1601 1602 -890 669 0
1579 1580 1581 1582 1583 1584 1585 1586 1587 1588 1589 1590 1591 1592 1593 1594 1595 1596 1597 1598 1599 1600 1601 1602 -670 891 0
1579 1580 1581 1582 1583 1584 1585 1586 1587 1588 1589 1590 1591 1592 1593 1594 1595 1596 1597 1598 1599 1600 1601 1602 -891 670 0
1579 1580 1581 1582 1583 1584 1585 1586 1587 1588 1589 1590 1591 1592 1593 1594 1595 1596 1597 1598 1599 1600 1601 1602 -677 898 0
1579 1580 1581 1582 1583 1584 1585 1586 1587 1588 1589 1590 1591 1592 1593 1594 1595 1596 1597 1598 1599 1600 1601 1602 -898 677 0
1579 1580 1581 1582 1583 1584 1585 1586 1587 1588 1589 1590 1591 1592 1593 1594 1595 1596 1597 1598 1599 1600 1601 1602 -684 905 0
1579 1580 1581 1582 1583 1584 1585 1586 1587 1588 1589 1590 1591 1592 1593 1594 1595 1596 1597 1598 1599 1600 1601 1602 -905 684 0
1579 1580 1581 1582 1583 1584 1585 1586 1587 1588 1589 1590 1591 1592 1593 1594 1595 1596 1597 1598 1599 1600 1601 1602 -691 912 0
1579 1580 1581 1582 1583 1584 1585 1586 1587 1588 1589 1590 1591 1592 1593 1594 1595 1596 1597 1598 1599 1600 1601 1602 -912 691 0
1603 1604 1605 1606 1607 1608 1609 1610 1611 1612 1613 1614 1615 1616 1617 1618 1619 1620 1621 1622 1623 1624 1625 1626 -723 944 0
1603 1604 1605 1606 1607 1608 1609 1610 1611 1612 1613 1614 1615 1616 1617 1618 1619 1620 1621 1622 1623 1624 1625 1626 -944 723 0
1603 1604 1605 1606 1607 1608 1609 1610 1611 1612 1613 1614 1615 1616 1617 1618 1619 1620 1621 1622 1623 1624 1625 1626 -724 945 0
1603 1604 1605 1606 1607 1608 1609 1610 1611 1612 1613 1614 1615 1616 1617 1618 1619 1620 1621 1622 1623 1624 1625 1626 -945 724 0
1603 1604 1605 1606 1607 1608 1609 1610 1611 1612 1613 1614 1615 1616 1617 1618 1619 1620 1621 1622 1623 1624 1625 1626 -725 946 0
1603 1604 1605 1606 1607 1608 1609 1610 1611 1612 1613 1614 1615 1616 1617 1618 1619 1620 1621 1622 1623 1624 1625 1626 -946 725 0
1603 1604 1605 1606 1607 1608 1609 1610 1611 1612 1613 1614 1615 1616 1617 1618 1619 1620 1621 1622 1623 1624 1625 1626 -726 947 0
1603 1604 1605 1606 1607 1608 1609 1610 1611 1612 1613 1614 1615 1616 1617 1618 1619 1620 1621 1622 1623 1624 1625 1626 -947 726 0
1603 1604 1605 1606 1607 1608 1609 1610 1611 1612 1613 1614 1615 1616 1617 1618 1619 1620 1621 1622 1623 1624 1625 1626 -727 948 0
1603 1604 1605 1606 1607 1608 1609 1610 1611 1612 1613 1614 1615 1616 1617 1618 1619 1620 1621 1622 1623 1624 1625 1626 -948 727 0
1603 1604 1605 1606 1607 1608 1609 1610 1611 1612 1613 1614 1615 1616 1617 1618 1619 1620 1621 1622 1623 1624 1625 1626 -728 949 0
1603 1604 1605 1606 1607 1608 1609 1610 1611 1612 1613 1614 1615 1616 1617 1618 1619 1620 1621 1622 1623 1624 1625 1626 -949 728 0
1603 1604 1605 1606 1607 1608 1609 1610 1611 1612 1613 1614 1615 1616 1617 1618 1619 1620 1621 1622 1623 1624 1625 1626 -729 950 0
1603 1604 1605 1606 1607 1608 1609 1610 1611 1612 1613 1614 1615 1616 1617 1618 1619 1620 1621 1622 1623 1624 1625 1626 -950 729 0
1603 1604 1605 1606 1607 1608 1609 1610 1611 1612 1613 1614 1615 1616 1617 1618 1619 1620 1621 1622 1623 1624 1625 1626 -736 957 0
1603 1604 1605 1606 1607 1608 1609 1610 1611 1612 1613 1614 1615 1616 1617 1618 1619 1620 1621 1622 1623 1624 1625 1626 -957 736 0
1603 1604 1605 1606 1607 1608 1609 1610 1611 1612 1613 1614 1615 1616 1617 1618 1619 1620 1621 1622 1623 1624 1625 1626 -743 964 0
1603 1604 1605 1606 1607 1608 1609 1610 1611 1612 1613 1614 1615 1616 1617 1618 1619 1620 1621 1622 1623 1624 1625 1626 -964 743 0
1603 1604 1605 1606 1607 1608 1609 1610 1611 1612 1613 1614 1615 1616 1617 1618 1619 1620 1621 1622 1623 1624 1625 1626 -750 971 0
1603 1604 1605 1606 1607 1608 1609 1610 1611 1612 1613 1614 1615 1616 1617 1618 1619 1620 1621 1622 1623 1624 1625 1626 -971 750 0
1627 1628 1629 1630 1631 1632 1633 1634 1635 1636 1637 1638 1639 1640 1641 1642 1643 1644 1645 1646 -782 1003 0
1627 1628 1629 1630 1631 1632 1633 1634 1635 1636 1637 1638 1639 1640 1641 1642 1643 1644 1645 1646 -1003 782 0
1627 1628 1629 1630 1631 1632 1633 1634 1635 1636 1637 1638 1639 1640 1641 1642 1643 1644 1645 1646 -783 1004 0
1627 1628 1629 1630 1631 1632 1633 1634 1635 1636 1637 1638 1639 1640 1641 1642 1643 1644 1645 1646 -1004 783 0
1627 1628 1629 1630 1631 1632 1633 1634 1635 1636 1637 1638 1639 1640 1641 1642 1643 1644 1645 1646 -784 1005 0
1627 1628 1629 1630 1631 1632 1633 1634 1635 1636 1637 1638 1639 1640 1641 1642 1643 1644 1645 1646 -1005 784 0
1627 1628 1629 1630 1631 1632 1633 1634 1635 1636 1637 1638 1639 1640 1641 1642 1643 1644 1645 1646 -785 1006 0
1627 1628 1629 1630 1631 1632 1633 1634 1635 1636 1637 1638 1639 1640 1641 1642 1643 1644 1645 1646 -1006 785 0
1627 1628 1629 1630 1631 1632 1633 1634 1635 1636 1637 1638 1639 1640 1641 1642 1643 1644 1645 1646 -786 1007 0
1627 1628 1629 1630 1631 1632 1633 1634 1635 1636 1637 1638 1639 1640 1641 1642 1643 1644 1645 1646 -1007 786 0
1627 1628 1629 1630 1631 1632 1633 1634 1635 1636 1637 1638 1639 1640 1641 1642 1643 1644 1645 1646 -787 1008 0
1627 1628 1629 1630 1631 1632 1633 1634 1635 1636 1637 1638 1639 1640 1641 1642 1643 1644 1645 1646 -1008 787 0
1627 1628 1629 1630 1631 1632 1633 1634 1635 1636 1637 1638 1639 1640 1641 1642 1643 1644 1645 1646 -793 1014 0
1627 1628 1629 1630 1631 1632 1633 1634 1635 1636 1637 1638 1639 1640 1641 1642 1643 1644 1645 1646 -1014 793 0
1627 1628 1629 1630 1631 1632 1633 1634 1635 1636 1637 1638 1639 1640 1641 1642 1643 1644 1645 1646 -799 1020 0
1627 1628 1629 1630 1631 1632 1633 1634 1635 1636 1637 1638 1639 1640 1641 1642 1643 1644 1645 1646 -1020 799 0
1627 1628 1629 1630 1631 1632 1633 1634 1635 1636 1637 1638 1639 1640 1641 1642 1643 1644 1645 1646 -805 1026 0
1627 1628 1629 1630 1631 1632 1633 1634 1635 1636 1637 1638 1639 1640 1641 1642 1643 1644 1645 1646 -1026 805 0
1647 1648 1649 1650 1651 1652 1653 1654 1655 1656 1657 1658 1659 1660 1661 1662 -836 1057 0
1647 1648 1649 1650 1651 1652 1653 1654 1655 1656 1657 1658 1659 1660 1661 1662 -1057 836 0
1647 1648 1649 1650 1651 1652 1653 1654 1655 1656 1657 1658 1659 1660 1661 1662 -837 1058 0
1647 1648 1649 1650 1651 1652 1653 1654 1655 1656 1657 1658 1659 1660 1661 1662 -1058 837 0
1647 1648 1649 1650 1651 1652 1653 1654 1655 1656 1657 1658 1659 1660 1661 1662 -838 1059 0
1647 1648 1649 1650 1651 1652 1653 1654 1655 1656 1657 1658 1659 1660 1661 1662 -1059 838 0
1647 1648 1649 1650 1651 1652 1653 1654 1655 1656 1657 1658 1659 1660 1661 1662 -839 1060 0
1647 1648 1649 1650 1651 1652 1653 1654 1655 1656 1657 1658 1659 1660 1661 1662 -1060 839 0
1647 1648 1649 1650 1651 1652 1653 1654 1655 1656 1657 1658 1659 1660 1661 1662 -840 1061 0
1647 1648 1649 1650 1651 1652 1653 1654 1655 1656 1657 1658 1659 1660 1661 1662 -1061 840 0
1647 1648 1649 1650 1651 1652 1653 1654 1655 1656 1657 1658 1659 1660 1661 1662 -845 1066 0
1647 1648 1649 1650 1651 1652 1653 1654 1655 1656 1657 1658 1659 1660 1661 1662 -1066 845 0
1647 1648 1649 1650 1651 1652 1653 1654 1655 1656 1657 1658 1659 1660 1661 1662 -850 1071 0
1647 1648 1649 1650 1651 1652 1653 1654 1655 1656 1657 1658 1659 1660 1661 1662 -1071 850 0
1647 1648 1649 1650 1651 1652 1653 1654 1655 1656 1657 1658 1659 1660 1661 1662 -855 1076 0
1647 1648 1649 1650 1651 1652 1653 1654 1655 1656 1657 1658 1659 1660 1661 1662 -1076 855 0
1663 1664 1665 1666 1667 1668 1669 1670 1671 1672 1673 1674 1675 1676 1677 1678 1679 1680 1681 1682 1683 1684 1685 1686 -885 1106 0
1663 1664 1665 1666 1667 1668 1669 1670 1671 1672 1673 1674 1675 1676 1677 1678 1679 1680 1681 1682 1683 1684 1685 1686 -1106 885 0
1663 1664 1665 1666 1667 1668 1669 1670 1671 1672 1673 1674 1675 1676 1677 1678 1679 1680 1681 1682 1683 1684 1685 1686 -886 1107 0
1663 1664 1665 1666 1667 1668 1669 1670 1671 1672 1673 1674 1675 1676 1677 1678 1679 1680 1681 1682 1683 1684 1685 1686 -1107 886 0
1663 1664 1665 1666 1667 1668 1669 1670 1671 1672 1673 1674 1675 1676 1677 1678 1679 1680 1681 1682 1683 1684 1685 1686 -887 1108 0
1663 1664 1665 1666 1667 1668 1669 1670 1671 1672 1673 1674 1675 1676 1677 1678 1679 1680 1681 1682 1683 1684 1685 1686 -1108 887 0
1663 1664 1665 1666 1667 1668 1669 1670 1671 1672 1673 1674 1675 1676 1677 1678 1679 1680 1681 1682 1683 1684 1685 1686 -888 1109 0
1663 1664 1665 1666 1667 1668 1669 1670 1671 1672 1673 1674 1675 1676 1677 1678 1679 1680 1681 1682 1683 1684 1685 1686 -1109 888 0
1663 1664 1665 1666 1667 1668 1669 1670 1671 1672 1673 1674 1675 1676 1677 1678 1679 1680 1681 1682 1683 1684 1685 1686 -889 1110 0
1663 1664 1665 1666 1667 1668 1669 1670 1671 1672 1673 1674 1675 1676 1677 1678 1679 1680 1681 1682 1683 1684 1685 1686 -1110 889 0
1663 1664 1665 1666 1667 1668 1669 1670 1671 1672 1673 1674 1675 1676 1677 1678 1679 1680 1681 1682 1683 1684 1685 1686 -890 1111 0
1663 1664 1665 1666 1667 1668 1669 1670 1671 1672 1673 1674 1675 1676 1677 1678 1679 1680 1681 1682 1683 1684 1685 1686 -1111 890 0
1663 1664 1665 1666 1667 1668 1669 1670 1671 1672 1673 1674 1675 1676 1677 1678 1679 1680 1681 1682 1683 1684 1685 1686 -891 1112 0
1663 1664 1665 1666 1667 1668 1669 1670 1671 1672 1673 1674 1675 1676 1677 1678 1679 1680 1681 1682 1683 1684 1685 1686 -1112 891 0
1663 1664 1665 1666 1667 1668 1669 1670 1671 1672 1673 1674 1675 1676 1677 1678 1679 1680 1681 1682 1683 1684 1685 1686 -898 1119 0
1663 1664 1665 1666 1667 1668 1669 1670 1671 1672 1673 1674 1675 1676 1677 1678 1679 1680 1681 1682 1683 1684 1685 1686 -1119 898 0
1663 1664 1665 1666 1667 1668 1669 1670 1671 1672 1673 1674 1675 1676 1677 1678 1679 1680 1681 1682 1683 1684 1685 1686 -905 1126 0
1663 1664 1665 1666 1667 1668 1669 1670 1671 1672 1673 1674 1675 1676 1677 1678 1679 1680 1681 1682 1683 1684 1685 1686 -1126 905 0
1663 1664 1665 1666 1667 1668 1669 1670 1671 1672 1673 1674 1675 1676 1677 1678 1679 1680 1681 1682 1683 1684 1685 1686 -912 1133 0
1663 1664 1665 1666 1667 1668 1669 1670 1671 1672 1673 1674 1675 1676 1677 1678 1679 1680 1681 1682 1683 1684 1685 1686 -1133 912 0
1687 1688 1689 1690 1691 1692 1693 1694 1695 1696 1697 1698 1699 1700 1701 1702 1703 1704 1705 1706 1707 1708 1709 1710 -944 1165 0
1687 1688 1689 1690 1691 1692 1693 1694 1695 1696 1697 1698 1699 1700 1701 1702 1703 1704 1705 1706 1707 1708 1709 1710 -1165 944 0
1687 1688 1689 1690 1691 1692 1693 1694 1695 1696 1697 1698 1699 1700 1701 1702 1703 1704 1705 1706 1707 1708 1709 1710 -945 1166 0
1687 1688 1689 1690 1691 1692 1693 1694 1695 1696 1697 1698 1699 1700 1701 1702 1703 1704 1705 1706 1707 1708 1709 1710 -1166 945 0
1687 1688 1689 1690 1691 1692 1693 1694 1695 1696 1697 1698 1699 1700 1701 1702 1703 1704 1705 1706 1707 1708 1709 1710 -946 1167 0
1687 1688 1689 1690 1691 1692 1693 1694 1695 1696 1697 1698 1699 1700 1701 1702 1703 1704 1705 1706 1707 1708 1709 1710 -1167 946 0
1687 1688 1689 1690 1691 1692 1693 1694 1695 1696 1697 1698 1699 1700 1701 1702 1703 1704 1705 1706 1707 1708 1709 1710 -947 1168 0
1687 1688 1689 1690 1691 1692 1693 1694 1695 1696 1697 1698 1699 1700 1701 1702 1703 1704 1705 1706 1707 1708 1709 1710 -1168 947 0
1687 1688 1689 1690 1691 1692 1693 1694 1695 1696 1697 1698 1699 1700 1701 1702 1703 1704 1705 1706 1707 1708 1709 1710 -948 1169 0
1687 1688 1689 1690 1691 1692 1693 1694 1695 1696 1697 1698 1699 1700 1701 1702 1703 1704 1705 1706 1707 1708 1709 1710 -1169 948 0
1687 1688 1689 1690 1691 1692 1693 1694 1695 1696 1697 1698 1699 1700 1701 1702 1703 1704 1705 1706 1707 1708 1709 1710 -949 1170 0
1687 1688 1689 1690 1691 1692 1693 1694 1695 1696 1697 1698 1699 1700 1701 1702 1703 1704 1705 1706 1707 1708 1709 1710 -1170 949 0
1687 1688 1689 1690 1691 1692 1693 1694 1695 1696 1697 1698 1699 1700 1701 1702 1703 1704 1705 1706 1707 1708 1709 1710 -950 1171 0
1687 1688 1689 1690 1691 1692 1693 1694 1695 1696 1697 1698 1699 1700 1701 1702 1703 1704 1705 1706 1707 1708 1709 1710 -1171 950 0
1687 1688 1689 1690 1691 1692 1693 1694 1695 1696 1697 1698 1699 1700 1701 1702 1703 1704 1705 1706 1707 1708 1709 1710 -957 1178 0
1687 1688 1689 1690 1691 1692 1693 1694 1695 1696 1697 1698 1699 1700 1701 1702 1703 1704 1705 1706 1707 1708 1709 1710 -1178 957 0
1687 1688 1689 1690 1691 1692 1693 1694 1695 1696 1697 1698 1699 1700 1701 1702 1703 1704 1705 1706 1707 1708 1709 1710 -964 1185 0
1687 1688 1689 1690 1691 1692 1693 1694 1695 1696 1697 1698 1699 1700 1701 1702 1703 1704 1705 1706 1707 1708 1709 1710 -1185 964 0
1687 1688 1689 1690 1691 1692 1693 1694 1695 1696 1697 1698 1699 1700 1701 1702 1703 1704 1705 1706 1707 1708 1709 1710 -971 1192 0
1687 1688 1689 1690 1691 1692 1693 1694 1695 1696 1697 1698 1699 1700 1701 1702 1703 1704 1705 1706 1707 1708 1709 1710 -1192 971 0
1711 1712 1713 1714 1715 1716 1717 1718 1719 1720 1721 1722 1723 1724 1725 1726 1727 1728 1729 1730 -1003 1224 0
1711 1712 1713 1714 1715 1716 1717 1718 1719 1720 1721 1722 1723 1724 1725 1726 1727 1728 1729 1730 -1224 1003 0
1711 1712 1713 1714 1715 1716 1717 1718 1719 1720 1721 1722 1723 1724 1725 1726 1727 1728 1729 1730 -1004 1225 0
1711 1712 1713 1714 1715 1716 1717 1718 1719 1720 1721 1722 1723 1724 1725 1726 1727 1728 1729 1730 -1225 1004 0
1711 1712 1713 1714 1715 1716 1717 1718 1719 1720 1721 1722 1723 1724 1725 1726 1727 1728 1729 1730 -1005 1226 0
1711 1712 1713 1714 1715 1716 1717 1718 1719 1720 1721 1722 1723 1724 1725 1726 1727 1728 1729 1730 -1226 1005 0
1711 1712 1713 1714 1715 1716 1717 1718 1719 1720 1721 1722 1723 1724 1725 1726 1727 1728 1729 1730 -1006 1227 0
1711 1712 1713 1714 1715 1716 1717 1718 1719 1720 1721 1722 1723 1724 1725 1726 1727 1728 1729 1730 -1227 1006 0
1711 1712 1713 1714 1715 1716 1717 1718 1719 1720 1721 1722 1723 1724 1725 1726 1727 1728 1729 1730 -1007 1228 0
1711 1712 1713 1714 1715 1716 1717 1718 1719 1720 1721 1722 1723 1724 1725 1726 1727 1728 1729 1730 -1228 1007 0
1711 1712 1713 1714 1715 1716 1717 1718 1719 1720 1721 1722 1723 1724 1725 1726 1727 1728 1729 1730 -1008 1229 0
1711 1712 1713 1714 1715 1716 1717 1718 1719 1720 1721 1722 1723 1724 1725 1726 1727 1728 1729 1730 -1229 1008 0
1711 1712 1713 1714 1715 1716 1717 1718 1719 1720 1721 1722 1723 1724 1725 1726 1727 1728 1729 1730 -1014 1235 0
1711 1712 1713 1714 1715 1716 1717 1718 1719 1720 1721 1722 1723 1724 1725 1726 1727 1728 1729 1730 -1235 1014 0
1711 1712 1713 1714 1715 1716 1717 1718 1719 1720 1721 1722 1723 1724 1725 1726 1727 1728 1729 1730 -1020 1241 0
1711 1712 1713 1714 1715 1716 1717 1718 1719 1720 1721 1722 1723 1724 1725 1726 1727 1728 1729 1730 -1241 1020 0
1711 1712 1713 1714 1715 1716 1717 1718 1719 1720 1721 1722 1723 1724 1725 1726 1727 1728 1729 1730 -1026 1247 0
1711 1712 1713 1714 1715 1716 1717 1718 1719 1720 1721 1722 1723 1724 1725 1726 1727 1728 1729 1730 -1247 1026 0
1731 1732 1733 1734 1735 1736 1737 1738 1739 1740 1741 1742 1743 1744 1745 1746 -1057 1278 0
1731 1732 1733 1734 1735 1736 1737 1738 1739 1740 1741 1742 1743 1744 1745 1746 -1278 1057 0
1731 1732 1733 1734 1735 1736 1737 1738 1739 1740 1741 1742 1743 1744 1745 1746 -1058 1279 0
1731 1732 1733 1734 1735 1736 1737 1738 1739 1740 1741 1742 1743 1744 1745 1746 -1279 1058 0
1731 1732 1733 1734 1735 1736 1737 1738 1739 1740 1741 1742 1743 1744 1745 1746 -1059 1280 0
1731 1732 1733 1734 1735 1736 1737 1738 1739 1740 1741 1742 1743 1744 1745 1746 -1280 1059 0
1731 1732 1733 1734 1735 1736 1737 1738 1739 1740 1741 1742 1743 1744 1745 1746 -1060 1281 0
1731 1732 1733 1734 1735 1736 1737 1738 1739 1740 1741 1742 1743 1744 1745 1746 -1281 1060 0
1731 1732 1733 1734 1735 1736 1737 1738 1739 1740 1741 1742 1743 1744 1745 1746 -1061 1282 0
1731 1732 1733 1734 1735 1736 1737 1738 1739 1740 1741 1742 1743 1744 1745 1746 -1282 1061 0
1731 1732 1733 1734 1735 1736 1737 1738 1739 1740 1741 1742 1743 1744 1745 1746 -1066 1287 0
1731 1732 1733 1734 1735 1736 1737 1738 1739 1740 1741 1742 1743 1744 1745 1746 -1287 1066 0
1731 1732 1733 1734 1735 1736 1737 1738 1739 1740 1741 1742 1743 1744 1745 1746 -1071 1292 0
1731 1732 1733 1734 1735 1736 1737 1738 1739 1740 1741 1742 1743 1744 1745 1746 -1292 1071 0
1731 1732 1733 1734 1735 1736 1737 1738 1739 1740 1741 1742 1743 1744 1745 1746 -1076 1297 0
1731 1732 1733 1734 1735 1736 1737 1738 1739 1740 1741 1742 1743 1744 1745 1746 -1297 1076 0
1327 1328 1329 1330 1331 1332 1333 1334 1335 1336 1337 1338 1339 1340 1341 1342 1343 1344 1345 1346 1347 1348 1349 1350 1351 1352 1353 1354 1355 1356 1357 1358 1359 1360 1361 1362 1363 1364 1365 1366 1367 1368 1369 1370 1371 1372 1373 1374 1375 1376 1377 1378 1379 1380 1381 1382 1383 1384 1385 1386 1387 1388 1389 1390 1391 1392 1393 1394 1395 1396 1397 1398 1399 1400 1401 1402 1403 1404 1405 1406 1407 1408 1409 1410 0
-1327 -1328 0
-1327 -1329 0
-1327 -1330 0
-1327 -1331 0
-1327 -1332 0
-1327 -1333 0
-1327 -1334 0
-1327 -1335 0
-1327 -1336 0
-1327 -1337 0
-1327 -1338 0
-1327 -1339 0
-1327 -1340 0
-1327 -1341 0
-1327 -1342 0
-1327 -1343 0
-1327 -1344 0
-1327 -1345 0
-1327 -1346 0
-1327 -1347 0
-1327 -1348 0
-1327 -1349 0
-1327 -1350 0
-1327 -1351 0
-1327 -1352 0
-1327 -1353 0
-1327 -1354 0
-1327 -1355 0
-1327 -1356 0
-1327 -1357 0
-1327 -1358 0
-1327 -1359 0
-1327 -1360 0
-1327 -1361 0
-1327 -1362 0
-1327 -1363 0
-1327 -1364 0
-1327 -1365 0
-1327 -1366 0
-1327 -1367 0
-1327 -1368 0
-1327 -1369 0
-1327 -1370 0
-1327 -1371 0
-1327 -1372 0
-1327 -1373 0
-1327 -1374 0
-1327 -1375 0
-1327 -1376 0
-1327 -1377 0
-1327 -1378 0
-1327 -1379 0
-1327 -1380 0
-1327 -1381 0
-1327 -1382 0
-1327 -1383 0
-1327 -1384 0
-1327 -1385 0
-1327 -1386 0
-1327 -1387 0
-1327 -1388 0
-1327 -1389 0
-1327 -1390 0
-1327 -1391 0
-1327 -1392 0
-1327 -1393 0
-1327 -1394 0
-1327 -1395 0
-1327 -1396 0
-1327 -1397 0
-1327 -1398 0
-1327 -1399 0
-1327 -1400 0
-1327 -1401 0
-1327 -1402 0
-1327 -1403 0
-1327 -1404 0
-1327 -1405 0
-1327 -1406 0
-1327 -1407 0
-1327 -1408 0
-1327 -1409 0
-1327 -1410 0
-1328 -1329 0
-1328 -1330 0
-1328 -1331 0
-1328 -1332 0
-1328 -1333 0
-1328 -1334 0
-1328 -1335 0
-1328 -1336 0
-1328 -1337 0
-1328 -1338 0
-1328 -1339 0
-1328 -1340 0
-1328 -1341 0
-1328 -1342 0
-1328 -1343 0
-1328 -1344 0
-1328 -1345 0
-1328 -1346 0
-1328 -1347 0
-1328 -1348 0
-1328 -1349 0
-1328 -1350 0
-1328 -1351 0
-1328 -1352 0
-1328 -1353 0
-1328 -1354 0
-1328 -1355 0
-1328 -1356 0
-1328 -1357 0
-1328 -1358 0
-1328 -1359 0
-1328 -1360 0
-1328 -1361 0
-1328 -1362 0
-1328 -1363 0
-1328 -1364 0
-1328 -1365 0
-1328 -1366 0
-1328 -1367 0
-1328 -1368 0
-1328 -1369 0
-1328 -1370 0
-1328 -1371 0
-1328 -1372 0
-1328 -1373 0
-1328 -1374 0
-1328 -1375 0
-1328 -1376 0
-1328 -1377 0
-1328 -1378 0
-1328 -1379 0
-1328 -1380 0
-1328 -1381 0
-1328 -1382 0
-1328 -1383 0
-1328 -1384 0
-1328 -1385 0
-1328 -1386 0
-1328 -1387 0
-1328 -1388 0
-1328 -1389 0
-1328 -1390 0
-1328 -1391 0
-1328 -1392 0
-1328 -1393 0
-1328 -1394 0
-1328 -1395 0
-1328 -1396 0
-1328 -1397 0
-1328 -1398 0
-1328 -1399 0
-1328 -1400 0
-1328 -1401 0
-1328 -1402 0
-1328 -1403 0
-1328 -1404 0
-1328 -1405 0
-1328 -1406 0
-1328 -1407 0
-1328 -1408 0
-1328 -1409 0
-1328 -1410 0
-1329 -1330 0
-1329 -1331 0
-1329 -1332 0
-1329 -1333 0
-1329 -1334 0
-1329 -1335 0
-1329 -1336 0
-1329 -1337 0
-1329 -1338 0
-1329 -1339 0
-1329 -1340 0
-1329 -1341 0
-1329 -1342 0
-1329 -1343 0
-1329 -1344 0
-1329 -1345 0
-1329 -1346 0
-1329 -1347 0
-1329 -1348 0
-1329 -1349 0
-1329 -1350 0
-1329 -1351 0
-1329 -1352 0
-1329 -1353 0
-1329 -1354 0
-1329 -1355 0
-1329 -1356 0
-1329 -1357 0
-1329 -1358 0
-1329 -1359 0
-1329 -1360 0
-1329 -1361 0
-1329 -1362 0
-1329 -1363 0
-1329 -1364 0
-1329 -1365 0
-1329 -1366 0
-1329 -1367 0
-1329 -1368 0
-1329 -1369 0
-1329 -1370 0
-1329 -1371 0
-1329 -1372 0
-1329 -1373 0
-1329 -1374 0
-1329 -1375 0
-1329 -1376 0
-1329 -1377 0
-1329 -1378 0
-1329 -1379 0
-1329 -1380 0
-1329 -1381 0
-1329 -1382 0
-1329 -1383 0
-1329 -1384 0
-1329 -1385 0
-1329 -1386 0
-1329 -1387 0
-1329 -1388 0
-1329 -1389 0
-1329 -1390 0
-1329 -1391 0
-1329 -1392 0
-1329 -1393 0
-1329 -1394 0
-1329 -1395 0
-1329 -1396 0
-1329 -1397 0
-1329 -1398 0
-1329 -1399 0
-1329 -1400 0
-1329 -1401 0
-1329 -1402 0
-1329 -1403 0
-1329 -1404 0
-1329 -1405 0
-1329 -1406 0
-1329 -1407 0
-1329 -1408 0
-1329 -1409 0
-1329 -1410 0
-1330 -1331 0
-1330 -1332 0
-1330 -1333 0
-1330 -1334 0
-1330 -1335 0
-1330 -1336 0
-1330 -1337 0
-1330 -1338 0
-1330 -1339 0
-1330 -1340 0
-1330 -1341 0
-1330 -1342 0
-1330 -1343 0
-1330 -1344 0
-1330 -1345 0
-1330 -1346 0
-1330 -1347 0
-1330 -1348 0
-1330 -1349 0
-1330 -1350 0
-1330 -1351 0
-1330 -1352 0
-1330 -1353 0
-1330 -1354 0
-1330 -1355 0
-1330 -1356 0
-1330 -1357 0
-1330 -1358 0
-1330 -1359 0
-1330 -1360 0
-1330 -1361 0
-1330 -1362 0
-1330 -1363 0
-1330 -1364 0
-1330 -1365 0
-1330 -1366 0
-1330 -1367 0
-1330 -1368 0
-1330 -1369 0
-1330 -1370 0
-1330 -1371 0
-1330 -1372 0
-1330 -1373 0
-1330 -1374 0
-1330 -1375 0
-1330 -1376 0
-1330 -1377 0
-1330 -1378 0
-1330 -1379 0
-1330 -1380 0
-1330 -1381 0
-1330 -1382 0
-1330 -1383 0
-1330 -1384 0
-1330 -1385 0
-1330 -1386 0
-1330 -1387 0
-1330 -1388 0
-1330 -1389 0
-1330 -1390 0
-1330 -1391 0
-1330 -1392 0
-1330 -1393 0
-1330 -1394 0
-1330 -1395 0
-1330 -1396 0
-1330 -1397 0
-1330 -1398 0
-1330 -1399 0
-1330 -1400 0
-1330 -1401 0
-1330 -1402 0
-1330 -1403 0
-1330 -1404 0
-1330 -1405 0
-1330 -1406 0
-1330 -1407 0
-1330 -1408 0
-1330 -1409 0
-1330 -1410 0
-1331 -1332 0
-1331 -1333 0
-1331 -1334 0
-1331 -1335 0
-1331 -1336 0
-1331 -1337 0
-1331 -1338 0
-1331 -1339 0
-1331 -1340 0
-1331 -1341 0
-1331 -1342 0
-1331 -1343 0
-1331 -1344 0
-1331 -1345 0
-1331 -1346 0
-1331 -1347 0
-1331 -1348 0
-1331 -1349 0
-1331 -1350 0
-1331 -1351 0
-1331 -1352 0
-1331 -1353 0
-1331 -1354 0
-1331 -1355 0
-1331 -1356 0
-1331 -1357 0
-1331 -1358 0
-1331 -1359 0
-1331 -1360 0
-1331 -1361 0
-1331 -1362 0
-1331 -1363 0
-1331 -1364 0
-1331 -1365 0
-1331 -1366 0
-1331 -1367 0
-1331 -1368 0
-1331 -1369 0
-1331 -1370 0
-1331 -1371 0
-1331 -1372 0
-1331 -1373 0
-1331 -1374 0
-1331 -1375 0
-1331 -1376 0
-1331 -1377 0
-1331 -1378 0
-1331 -1379 0
-1331 -1380 0
-1331 -1381 0
-1331 -1382 0
-1331 -1383 0
-1331 -1384 0
-1331 -1385 0
-1331 -1386 0
-1331 -1387 0
-1331 -1388 0
-1331 -1389 0
-1331 -1390 0
-1331 -1391 0
-1331 -1392 0
-1331 -1393 0
-1331 -1394 0
-1331 -1395 0
-1331 -1396 0
-1331 -1397 0
-1331 -1398 0
-1331 -1399 0
-1331 -1400 0
-1331 -1401 0
-1331 -1402 0
-1331 -1403 0
-1331 -1404 0
-1331 -1405 0
-1331 -1406 0
-1331 -1407 0
-1331 -1408 0
-1331 -1409 0
-1331 -1410 0
-1332 -1333 0
-1332 -1334 0
-1332 -1335 0
-1332 -1336 0
-1332 -1337 0
-1332 -1338 0
-1332 -1339 0
-1332 -1340 0
-1332 -1341 0
-1332 -1342 0
-1332 -1343 0
-1332 -1344 0
-1332 -1345 0
-1332 -1346 0
-1332 -1347 0
-1332 -1348 0
-1332 -1349 0
-1332 -1350 0
-1332 -1351 0
-1332 -1352 0
-1332 -1353 0
-1332 -1354 0
-1332 -1355 0
-1332 -1356 0
-1332 -1357 0
-1332 -1358 0
-1332 -1359 0
-1332 -1360 0
-1332 -1361 0
-1332 -1362 0
-1332 -1363 0
-1332 -1364 0
-1332 -1365 0
-1332 -1366 0
-1332 -1367 0
-1332 -1368 0
-1332 -1369 0
-1332 -1370 0
-1332 -1371 0
-1332 -1372 0
-1332 -1373 0
-1332 -1374 0
-1332 -1375 0
-1332 -1376 0
-1332 -1377 0
-1332 -1378 0
-1332 -1379 0
-1332 -1380 0
-1332 -1381 0
-1332 -1382 0
-1332 -1383 0
-1332 -1384 0
-1332 -1385 0
-1332 -1386 0
-1332 -1387 0
-1332 -1388 0
-1332 -1389 0
-1332 -1390 0
-1332 -1391 0
-1332 -1392 0
-1332 -1393 0
-1332 -1394 0
-1332 -1395 0
-1332 -1396 0
-1332 -1397 0
-1332 -1398 0
-1332 -1399 0
-1332 -1400 0
-1332 -1401 0
-1332 -1402 0
-1332 -1403 0
-1332 -1404 0
-1332 -1405 0
-1332 -1406 0
-1332 -1407 0
-1332 -1408 0
-1332 -1409 0
-1332 -1410 0
-1333 -1334 0
-1333 -1335 0
-1333 -1336 0
-1333 -1337 0
-1333 -1338 0
-1333 -1339 0
-1333 -1340 0
-1333 -1341 0
-1333 -1342 0
-1333 -1343 0
-1333 -1344 0
-1333 -1345 0
-1333 -1346 0
-1333 -1347 0
-1333 -1348 0
-1333 -1349 0
-1333 -1350 0
-1333 -1351 0
-1333 -1352 0
-1333 -1353 0
-1333 -1354 0
-1333 -1355 0
-1333 -1356 0
-1333 -1357 0
-1333 -1358 0
-1333 -1359 0
-1333 -1360 0
-1333 -1361 0
-1333 -1362 0
-1333 -1363 0
-1333 -1364 0
-1333 -1365 0
-1333 -1366 0
-1333 -1367 0
-1333 -1368 0
-1333 -1369 0
-1333 -1370 0
-1333 -1371 0
-1333 -1372 0
-1333 -1373 0
-1333 -1374 0
-1333 -1375 0
-1333 -1376 0
-1333 -1377 0
-1333 -1378 0
-1333 -1379 0
-1333 -1380 0
-1333 -1381 0
-1333 -1382 0
-1333 -1383 0
-1333 -1384 0
-1333 -1385 0
-1333 -1386 0
-1333 -1387 0
-1333 -1388 0
-1333 -1389 0
-1333 -1390 0
-1333 -1391 0
-1333 -1392 0
-1333 -1393 0
-1333 -1394 0
-1333 -1395 0
-1333 -1396 0
-1333 -1397 0
-1333 -1398 0
-1333 -1399 0
-1333 -1400 0
-1333 -1401 0
-1333 -1402 0
-1333 -1403 0
-1333 -1404 0
-1333 -1405 0
-1333 -1406 0
-1333 -1407 0
-1333 -1408 0
-1333 -1409 0
-1333 -1410 0
-1334 -1335 0
-1334 -1336 0
-1334 -1337 0
-1334 -1338 0
-1334 -1339 0
-1334 -1340 0
-1334 -1341 0
-1334 -1342 0
-1334 -1343 0
-1334 -1344 0
-1334 -1345 0
-1334 -1346 0
-1334 -1347 0
-1334 -1348 0
-1334 -1349 0
-1334 -1350 0
-1334 -1351 0
-1334 -1352 0
-1334 -1353 0
-1334 -1354 0
-1334 -1355 0
-1334 -1356 0
-1334 -1357 0
-1334 -1358 0
-1334 -1359 0
-1334 -1360 0
-1334 -1361 0
-1334 -1362 0
-1334 -1363 0
-1334 -1364 0
-1334 -1365 0
-1334 -1366 0
-1334 -1367 0
-1334 -1368 0
-1334 -1369 0
-1334 -1370 0
-1334 -1371 0
-1334 -1372 0
-1334 -1373 0
-1334 -1374 0
-1334 -1375 0
-1334 -1376 0
-1334 -1377 0
-1334 -1378 0
-1334 -1379 0
-1334 -1380 0
-1334 -1381 0
-1334 -1382 0
-1334 -1383 0
-1334 -1384 0
-1334 -1385 0
-1334 -1386 0
-1334 -1387 0
-1334 -1388 0
-1334 -1389 0
-1334 -1390 0
-1334 -1391 0
-1334 -1392 0
-1334 -1393 0
-1334 -1394 0
-1334 -1395 0
-1334 -1396 0
-1334 -1397 0
-1334 -1398 0
-1334 -1399 0
-1334 -1400 0
-1334 -1401 0
-1334 -1402 0
-1334 -1403 0
-1334 -1404 0
-1334 -1405 0
-1334 -1406 0
-1334 -1407 0
-1334 -1408 0
-1334 -1409 0
-1334 -1410 0
-1335 -1336 0
-1335 -1337 0
-1335 -1338 0
-1335 -1339 0
-1335 -1340 0
-1335 -1341 0
-1335 -1342 0
-1335 -1343 0
-1335 -1344 0
-1335 -1345 0
-1335 -1346 0
-1335 -1347 0
-1335 -1348 0
-1335 -1349 0
-1335 -1350 0
-1335 -1351 0
-1335 -1352 0
-1335 -1353 0
-1335 -1354 0
-1335 -1355 0
-1335 -1356 0
-1335 -1357 0
-1335 -1358 0
-1335 -1359 0
-1335 -1360 0
-1335 -1361 0
-1335 -1362 0
-1335 -1363 0
-1335 -1364 0
-1335 -1365 0
-1335 -1366 0
-1335 -1367 0
-1335 -1368 0
-1335 -1369 0
-1335 -1370 0
-1335 -1371 0
-1335 -1372 0
-1335 -1373 0
-1335 -1374 0
-1335 -1375 0
-1335 -1376 0
-1335 -1377 0
-1335 -1378 0
-1335 -1379 0
-1335 -1380 0
-1335 -1381 0
-1335 -1382 0
-1335 -1383 0
-1335 -1384 0
-1335 -1385 0
-1335 -1386 0
-1335 -1387 0
-1335 -1388 0
-1335 -1389 0
-1335 -1390 0
-1335 -1391 0
-1335 -1392 0
-1335 -1393 0
-1335 -1394 0
-1335 -1395 0
-1335 -1396 0
-1335 -1397 0
-1335 -1398 0
-1335 -1399 0
-1335 -1400 0
-1335 -1401 0
-1335 -1402 0
-1335 -1403 0
-1335 -1404 0
-1335 -1405 0
-1335 -1406 0
-1335 -1407 0
-1335 -1408 0
-1335 -1409 0
-1335 -1410 0
-1336 -1337 0
-1336 -1338 0
-1336 -1339 0
-1336 -1340 0
-1336 -1341 0
-1336 -1342 0
-1336 -1343 0
-1336 -1344 0
-1336 -1345 0
-1336 -1346 0
-1336 -1347 0
-1336 -1348 0
-1336 -1349 0
-1336 -1350 0
-1336 -1351 0
-1336 -1352 0
-1336 -1353 0
-1336 -1354 0
-1336 -1355 0
-1336 -1356 0
-1336 -1357 0
-1336 -1358 0
-1336 -1359 0
-1336 -1360 0
-1336 -1361 0
-1336 -1362 0
-1336 -1363 0
-1336 -1364 0
-1336 -1365 0
-1336 -1366 0
-1336 -1367 0
-1336 -1368 0
-1336 -1369 0
-1336 -1370 0
-1336 -1371 0
-1336 -1372 0
-1336 -1373 0
-1336 -1374 0
-1336 -1375 0
-1336 -1376 0
-1336 -1377 0
-1336 -1378 0
-1336 -1379 0
-1336 -1380 0
-1336 -1381 0
-1336 -1382 0
-1336 -1383 0
-1336 -1384 0
-1336 -1385 0
-1336 -1386 0
-1336 -1387 0
-1336 -1388 0
-1336 -1389 0
-1336 -1390 0
-1336 -1391 0
-1336 -1392 0
-1336 -1393 0
-1336 -1394 0
-1336 -1395 0
-1336 -1396 0
-1336 -1397 0
-1336 -1398 0
-1336 -1399 0
-1336 -1400 0
-1336 -1401 0
-1336 -1402 0
-1336 -1403 0
-1336 -1404 0
-1336 -1405 0
-1336 -1406 0
-1336 -1407 0
-1336 -1408 0
-1336 -1409 0
-1336 -1410 0
-1337 -1338 0
-1337 -1339 0
-1337 -1340 0
-1337 -1341 0
-1337 -1342 0
-1337 -1343 0
-1337 -1344 0
-1337 -1345 0
-1337 -1346 0
-1337 -1347 0
-1337 -1348 0
-1337 -1349 0
-1337 -1350 0
-1337 -1351 0
-1337 -1352 0
-1337 -1353 0
-1337 -1354 0
-1337 -1355 0
-1337 -1356 0
-1337 -1357 0
-1337 -1358 0
-1337 -1359 0
-1337 -1360 0
-1337 -1361 0
-1337 -1362 0
-1337 -1363 0
-1337 -1364 0
-1337 -1365 0
-1337 -1366 0
-1337 -1367 0
-1337 -1368 0
-1337 -1369 0
-1337 -1370 0
-1337 -1371 0
-1337 -1372 0
-1337 -1373 0
-1337 -1374 0
-1337 -1375 0
-1337 -1376 0
-1337 -1377 0
-1337 -1378 0
-1337 -1379 0
-1337 -1380 0
-1337 -1381 0
-1337 -1382 0
-1337 -1383 0
-1337 -1384 0
-1337 -1385 0
-1337 -1386 0
-1337 -1387 0
-1337 -1388 0
-1337 -1389 0
-1337 -1390 0
-1337 -1391 0
-1337 -1392 0
-1337 -1393 0
-1337 -1394 0
-1337 -1395 0
-1337 -1396 0
-1337 -1397 0
-1337 -1398 0
-1337 -1399 0
-1337 -1400 0
-1337 -1401 0
-1337 -1402 0
-1337 -1403 0
-1337 -1404 0
-1337 -1405 0
-1337 -1406 0
-1337 -1407 0
-1337 -1408 0
-1337 -1409 0
-1337 -1410 0
-1338 -1339 0
-1338 -1340 0
-1338 -1341 0
-1338 -1342 0
-1338 -1343 0
-1338 -1344 0
-1338 -1345 0
-1338 -1346 0
-1338 -1347 0
-1338 -1348 0
-1338 -1349 0
-1338 -1350 0
-1338 -1351 0
-1338 -1352 0
-1338 -1353 0
-1338 -1354 0
-1338 -1355 0
-1338 -1356 0
-1338 -1357 0
-1338 -1358 0
-1338 -1359 0
-1338 -1360 0
-1338 -1361 0
-1338 -1362 0
-1338 -1363 0
-1338 -1364 0
-1338 -1365 0
-1338 -1366 0
-1338 -1367 0
-1338 -1368 0
-1338 -1369 0
-1338 -1370 0
-1338 -1371 0
-1338 -1372 0
-1338 -1373 0
-1338 -1374 0
-1338 -1375 0
-1338 -1376 0
-1338 -1377 0
-1338 -1378 0
-1338 -1379 0
-1338 -1380 0
-1338 -1381 0
-1338 -1382 0
-1338 -1383 0
-1338 -1384 0
-1338 -1385 0
-1338 -1386 0
-1338 -1387 0
-1338 -1388 0
-1338 -1389 0
-1338 -1390 0
-1338 -1391 0
-1338 -1392 0
-1338 -1393 0
-1338 -1394 0
-1338 -1395 0
-1338 -1396 0
-1338 -1397 0
-1338 -1398 0
-1338 -1399 0
-1338 -1400 0
-1338 -1401 0
-1338 -1402 0
-1338 -1403 0
-1338 -1404 0
-1338 -1405 0
-1338 -1406 0
-1338 -1407 0
-1338 -1408 0
-1338 -1409 0
-1338 -1410 0
-1339 -1340 0
-1339 -1341 0
-1339 -1342 0
-1339 -1343 0
-1339 -1344 0
-1339 -1345 0
-1339 -1346 0
-1339 -1347 0
-1339 -1348 0
-1339 -1349 0
-1339 -1350 0
-1339 -1351 0
-1339 -1352 0
-1339 -1353 0
-1339 -1354 0
-1339 -1355 0
-1339 -1356 0
-1339 -1357 0
-1339 -1358 0
-1339 -1359 0
-1339 -1360 0
-1339 -1361 0
-1339 -1362 0
-1339 -1363 0
-1339 -1364 0
-1339 -1365 0
-1339 -1366 0
-1339 -1367 0
-1339 -1368 0
-1339 -1369 0
-1339 -1370 0
-1339 -1371 0
-1339 -1372 0
-1339 -1373 0
-1339 -1374 0
-1339 -1375 0
-1339 -1376 0
-1339 -1377 0
-1339 -1378 0
-1339 -1379 0
-1339 -1380 0
-1339 -1381 0
-1339 -1382 0
-1339 -1383 0
-1339 -1384 0
-1339 -1385 0
-1339 -1386 0
-1339 -1387 0
-1339 -1388 0
-1339 -1389 0
-1339 -1390 0
-1339 -1391 0
-1339 -1392 0
-1339 -1393 0
-1339 -1394 0
-1339 -1395 0
-1339 -1396 0
-1339 -1397 0
-1339 -1398 0
-1339 -1399 0
-1339 -1400 0
-1339 -1401 0
-1339 -1402 0
-1339 -1403 0
-1339 -1404 0
-1339 -1405 0
-1339 -1406 0
-1339 -1407 0
-1339 -1408 0
-1339 -1409 0
-1339 -1410 0
-1340 -1341 0
-1340 -1342 0
-1340 -1343 0
-1340 -1344 0
-1340 -1345 0
-1340 -1346 0
-1340 -1347 0
-1340 -1348 0
-1340 -1349 0
-1340 -1350 0
-1340 -1351 0
-1340 -1352 0
-1340 -1353 0
-1340 -1354 0
-1340 -1355 0
-1340 -1356 0
-1340 -1357 0
-1340 -1358 0
-1340 -1359 0
-1340 -1360 0
-1340 -1361 0
-1340 -1362 0
-1340 -1363 0
-1340 -1364 0
-1340 -1365 0
-1340 -1366 0
-1340 -1367 0
-1340 -1368 0
-1340 -1369 0
-1340 -1370 0
-1340 -1371 0
-1340 -1372 0
-1340 -1373 0
-1340 -1374 0
-1340 -1375 0
-1340 -1376 0
-1340 -1377 0
-1340 -1378 0
-1340 -1379 0
-1340 -1380 0
-1340 -1381 0
-1340 -1382 0
-1340 -1383 0
-1340 -1384 0
-1340 -1385 0
-1340 -1386 0
-1340 -1387 0
-1340 -1388 0
-1340 -1389 0
-1340 -1390 0
-1340 -1391 0
-1340 -1392 0
-1340 -1393 0
-1340 -1394 0
-1340 -1395 0
-1340 -1396 0
-1340 -1397 0
-1340 -1398 0
-1340 -1399 0
-1340 -1400 0
-1340 -1401 0
-1340 -1402 0
-1340 -1403 0
-1340 -1404 0
-1340 -1405 0
-1340 -1406 0
-1340 -1407 0
-1340 -1408 0
-1340 -1409 0
-1340 -1410 0
-1341 -1342 0
-1341 -1343 0
-1341 -1344 0
-1341 -1345 0
-1341 -1346 0
-1341 -1347 0
-1341 -1348 0
-1341 -1349 0
-1341 -1350 0
-1341 -1351 0
-1341 -1352 0
-1341 -1353 0
-1341 -1354 0
-1341 -1355 0
-1341 -1356 0
-1341 -1357 0
-1341 -1358 0
-1341 -1359 0
-1341 -1360 0
-1341 -1361 0
-1341 -1362 0
-1341 -1363 0
-1341 -1364 0
-1341 -1365 0
-1341 -1366 0
-1341 -1367 0
-1341 -1368 0
-1341 -1369 0
-1341 -1370 0
-1341 -1371 0
-1341 -1372 0
-1341 -1373 0
-1341 -1374 0
-1341 -1375 0
-1341 -1376 0
-1341 -1377 0
-1341 -1378 0
-1341 -1379 0
-1341 -1380 0
-1341 -1381 0
-1341 -1382 0
-1341 -1383 0
-1341 -1384 0
-1341 -1385 0
-1341 -1386 0
-1341 -1387 0
-1341 -1388 0
-1341 -1389 0
-1341 -1390 0
-1341 -1391 0
-1341 -1392 0
-1341 -1393 0
-1341 -1394 0
-1341 -1395 0
-1341 -1396 0
-1341 -1397 0
-1341 -1398 0
-1341 -1399 0
-1341 -1400 0
-1341 -1401 0
-1341 -1402 0
-1341 -1403 0
-1341 -1404 0
-1341 -1405 0
-1341 -1406 0
-1341 -1407 0
-1341 -1408 0
-1341 -1409 0
-1341 -1410 0
-1342 -1343 0
-1342 -1344 0
-1342 -1345 0
-1342 -1346 0
-1342 -1347 0
-1342 -1348 0
-1342 -1349 0
-1342 -1350 0
-1342 -1351 0
-1342 -1352 0
-1342 -1353 0
-1342 -1354 0
-1342 -1355 0
-1342 -1356 0
-1342 -1357 0
-1342 -1358 0
-1342 -1359 0
-1342 -1360 0
-1342 -1361 0
-1342 -1362 0
-1342 -1363 0
-1342 -1364 0
-1342 -1365 0
-1342 -1366 0
-1342 -1367 0
-1342 -1368 0
-1342 -1369 0
-1342 -1370 0
-1342 -1371 0
-1342 -1372 0
-1342 -1373 0
-1342 -1374 0
-1342 -1375 0
-1342 -1376 0
-1342 -1377 0
-1342 -1378 0
-1342 -1379 0
-1342 -1380 0
-1342 -1381 0
-1342 -1382 0
-1342 -1383 0
-1342 -1384 0
-1342 -1385 0
-1342 -1386 0
-1342 -1387 0
-1342 -1388 0
-1342 -1389 0
-1342 -1390 0
-1342 -1391 0
-1342 -1392 0
-1342 -1393 0
-1342 -1394 0
-1342 -1395 0
-1342 -1396 0
-1342 -1397 0
-1342 -1398 0
-1342 -1399 0
-1342 -1400 0
-1342 -1401 0
-1342 -1402 0
-1342 -1403 0
-1342 -1404 0
-1342 -1405 0
-1342 -1406 0
-1342 -1407 0
-1342 -1408 0
-1342 -1409 0
-1342 -1410 0
-1343 -1344 0
-1343 -1345 0
-1343 -1346 0
-1343 -1347 0
-1343 -1348 0
-1343 -1349 0
-1343 -1350 0
-1343 -1351 0
-1343 -1352 0
-1343 -1353 0
-1343 -1354 0
-1343 -1355 0
-1343 -1356 0
-1343 -1357 0
-1343 -1358 0
-1343 -1359 0
-1343 -1360 0
-1343 -1361 0
-1343 -1362 0
-1343 -1363 0
-1343 -1364 0
-1343 -1365 0
-1343 -1366 0
-1343 -1367 0
-1343 -1368 0
-1343 -1369 0
-1343 -1370 0
-1343 -1371 0
-1343 -1372 0
-1343 -1373 0
-1343 -1374 0
-1343 -1375 0
-1343 -1376 0
-1343 -1377 0
-1343 -1378 0
-1343 -1379 0
-1343 -1380 0
-1343 -1381 0
-1343 -1382 0
-1343 -1383 0
-1343 -1384 0
-1343 -1385 0
-1343 -1386 0
-1343 -1387 0
-1343 -1388 0
-1343 -1389 0
-1343 -1390 0
-1343 -1391 0
-1343 -1392 0
-1343 -1393 0
-1343 -1394 0
-1343 -1395 0
-1343 -1396 0
-1343 -1397 0
-1343 -1398 0
-1343 -1399 0
-1343 -1400 0
-1343 -1401 0
-1343 -1402 0
-1343 -1403 0
-1343 -1404 0
-1343 -1405 0
-1343 -1406 0
-1343 -1407 0
-1343 -1408 0
-1343 -1409 0
-1343 -1410 0
-1344 -1345 0
-1344 -1346 0
-1344 -1347 0
-1344 -1348 0
-1344 -1349 0
-1344 -1350 0
-1344 -1351 0
-1344 -1352 0
-1344 -1353 0
-1344 -1354 0
-1344 -1355 0
-1344 -1356 0
-1344 -1357 0
-1344 -1358 0
-1344 -1359 0
-1344 -1360 0
-1344 -1361 0
-1344 -1362 0
-1344 -1363 0
-1344 -1364 0
-1344 -1365 0
-1344 -1366 0
-1344 -1367 0
-1344 -1368 0
-1344 -1369 0
-1344 -1370 0
-1344 -1371 0
-1344 -1372 0
-1344 -1373 0
-1344 -1374 0
-1344 -1375 0
-1344 -1376 0
-1344 -1377 0
-1344 -1378 0
-1344 -1379 0
-1344 -1380 0
-1344 -1381 0
-1344 -1382 0
-1344 -1383 0
-1344 -1384 0
-1344 -1385 0
-1344 -1386 0
-1344 -1387 0
-1344 -1388 0
-1344 -1389 0
-1344 -1390 0
-1344 -1391 0
-1344 -1392 0
-1344 -1393 0
-1344 -1394 0
-1344 -1395 0
-1344 -1396 0
-1344 -1397 0
-1344 -1398 0
-1344 -1399 0
-1344 -1400 0
-1344 -1401 0
-1344 -1402 0
-1344 -1403 0
-1344 -1404 0
-1344 -1405 0
-1344 -1406 0
-1344 -1407 0
-1344 -1408 0
-1344 -1409 0
-1344 -1410 0
-1345 -1346 0
-1345 -1347 0
-1345 -1348 0
-1345 -1349 0
-1345 -1350 0
-1345 -1351 0
-1345 -1352 0
-1345 -1353 0
-1345 -1354 0
-1345 -1355 0
-1345 -1356 0
-1345 -1357 0
-1345 -1358 0
-1345 -1359 0
-1345 -1360 0
-1345 -1361 0
-1345 -1362 0
-1345 -1363 0
-1345 -1364 0
-1345 -1365 0
-1345 -1366 0
-1345 -1367 0
-1345 -1368 0
-1345 -1369 0
-1345 -1370 0
-1345 -1371 0
-1345 -1372 0
-1345 -1373 0
-1345 -1374 0
-1345 -1375 0
-1345 -1376 0
-1345 -1377 0
-1345 -1378 0
-1345 -1379 0
-1345 -1380 0
-1345 -1381 0
-1345 -1382 0
-1345 -1383 0
-1345 -1384 0
-1345 -1385 0
-1345 -1386 0
-1345 -1387 0
-1345 -1388 0
-1345 -1389 0
-1345 -1390 0
-1345 -1391 0
-1345 -1392 0
-1345 -1393 0
-1345 -1394 0
-1345 -1395 0
-1345 -1396 0
-1345 -1397 0
-1345 -1398 0
-1345 -1399 0
-1345 -1400 0
-1345 -1401 0
-1345 -1402 0
-1345 -1403 0
-1345 -1404 0
-1345 -1405 0
-1345 -1406 0
-1345 -1407 0
-1345 -1408 0
-1345 -1409 0
-1345 -1410 0
-1346 -1347 0
-1346 -1348 0
-1346 -1349 0
-1346 -1350 0
-1346 -1351 0
-1346 -1352 0
-1346 -1353 0
-1346 -1354 0
-1346 -1355 0
-1346 -1356 0
-1346 -1357 0
-1346 -1358 0
-1346 -1359 0
-1346 -1360 0
-1346 -1361 0
-1346 -1362 0
-1346 -1363 0
-1346 -1364 0
-1346 -1365 0
-1346 -1366 0
-1346 -1367 0
-1346 -1368 0
-1346 -1369 0
-1346 -1370 0
-1346 -1371 0
-1346 -1372 0
-1346 -1373 0
-1346 -1374 0
-1346 -1375 0
-1346 -1376 0
-1346 -1377 0
-1346 -1378 0
-1346 -1379 0
-1346 -1380 0
-1346 -1381 0
-1346 -1382 0
-1346 -1383 0
-1346 -1384 0
-1346 -1385 0
-1346 -1386 0
-1346 -1387 0
-1346 -1388 0
-1346 -1389 0
-1346 -1390 0
-1346 -1391 0
-1346 -1392 0
-1346 -1393 0
-1346 -1394 0
-1346 -1395 0
-1346 -1396 0
-1346 -1397 0
-1346 -1398 0
-1346 -1399 0
-1346 -1400 0
-1346 -1401 0
-1346 -1402 0
-1346 -1403 0
-1346 -1404 0
-1346 -1405 0
-1346 -1406 0
-1346 -1407 0
-1346 -1408 0
-1346 -1409 0
-1346 -1410 0
-1347 -1348 0
-1347 -1349 0
-1347 -1350 0
-1347 -1351 0
-1347 -1352 0
-1347 -1353 0
-1347 -1354 0
-1347 -1355 0
-1347 -1356 0
-1347 -1357 0
-1347 -1358 0
-1347 -1359 0
-1347 -1360 0
-1347 -1361 0
-1347 -1362 0
-1347 -1363 0
-1347 -1364 0
-1347 -1365 0
-1347 -1366 0
-1347 -1367 0
-1347 -1368 0
-1347 -1369 0
-1347 -1370 0
-1347 -1371 0
-1347 -1372 0
-1347 -1373 0
-1347 -1374 0
-1347 -1375 0
-1347 -1376 0
-1347 -1377 0
-1347 -1378 0
-1347 -1379 0
-1347 -1380 0
-1347 -1381 0
-1347 -1382 0
-1347 -1383 0
-1347 -1384 0
-1347 -1385 0
-1347 -1386 0
-1347 -1387 0
-1347 -1388 0
-1347 -1389 0
-1347 -1390 0
-1347 -1391 0
-1347 -1392 0
-1347 -1393 0
-1347 -1394 0
-1347 -1395 0
-1347 -1396 0
-1347 -1397 0
-1347 -1398 0
-1347 -1399 0
-1347 -1400 0
-1347 -1401 0
-1347 -1402 0
-1347 -1403 0
-1347 -1404 0
-1347 -1405 0
-1347 -1406 0
-1347 -1407 0
-1347 -1408 0
-1347 -1409 0
-1347 -1410 0
-1348 -1349 0
-1348 -1350 0
-1348 -1351 0
-1348 -1352 0
-1348 -1353 0
-1348 -1354 0
-1348 -1355 0
-1348 -1356 0
-1348 -1357 0
-1348 -1358 0
-1348 -1359 0
-1348 -1360 0
-1348 -1361 0
-1348 -1362 0
-1348 -1363 0
-1348 -1364 0
-1348 -1365 0
-1348 -1366 0
-1348 -1367 0
-1348 -1368 0
-1348 -1369 0
-1348 -1370 0
-1348 -1371 0
-1348 -1372 0
-1348 -1373 0
-1348 -1374 0
-1348 -1375 0
-1348 -1376 0
-1348 -1377 0
-1348 -1378 0
-1348 -1379 0
-1348 -1380 0
-1348 -1381 0
-1348 -1382 0
-1348 -1383 0
-1348 -1384 0
-1348 -1385 0
-1348 -1386 0
-1348 -1387 0
-1348 -1388 0
-1348 -1389 0
-1348 -1390 0
-1348 -1391 0
-1348 -1392 0
-1348 -1393 0
-1348 -1394 0
-1348 -1395 0
-1348 -1396 0
-1348 -1397 0
-1348 -1398 0
-1348 -1399 0
-1348 -1400 0
-1348 -1401 0
-1348 -1402 0
-1348 -1403 0
-1348 -1404 0
-1348 -1405 0
-1348 -1406 0
-1348 -1407 0
-1348 -1408 0
-1348 -1409 0
-1348 -1410 0
-1349 -1350 0
-1349 -1351 0
-1349 -1352 0
-1349 -1353 0
-1349 -1354 0
-1349 -1355 0
-1349 -1356 0
-1349 -1357 0
-1349 -1358 0
-1349 -1359 0
-1349 -1360 0
-1349 -1361 0
-1349 -1362 0
-1349 -1363 0
-1349 -1364 0
-1349 -1365 0
-1349 -1366 0
-1349 -1367 0
-1349 -1368 0
-1349 -1369 0
-1349 -1370 0
-1349 -1371 0
-1349 -1372 0
-1349 -1373 0
-1349 -1374 0
-1349 -1375 0
-1349 -1376 0
-1349 -1377 0
-1349 -1378 0
-1349 -1379 0
-1349 -1380 0
-1349 -1381 0
-1349 -1382 0
-1349 -1383 0
-1349 -1384 0
-1349 -1385 0
-1349 -1386 0
-1349 -1387 0
-1349 -1388 0
-1349 -1389 0
-1349 -1390 0
-1349 -1391 0
-1349 -1392 0
-1349 -1393 0
-1349 -1394 0
-1349 -1395 0
-1349 -1396 0
-1349 -1397 0
-1349 -1398 0
-1349 -1399 0
-1349 -1400 0
-1349 -1401 0
-1349 -1402 0
-1349 -1403 0
-1349 -1404 0
-1349 -1405 0
-1349 -1406 0
-1349 -1407 0
-1349 -1408 0
-1349 -1409 0
-1349 -1410 0
-1350 -1351 0
-1350 -1352 0
-1350 -1353 0
-1350 -1354 0
-1350 -1355 0
-1350 -1356 0
-1350 -1357 0
-1350 -1358 0
-1350 -1359 0
-1350 -1360 0
-1350 -1361 0
-1350 -1362 0
-1350 -1363 0
-1350 -1364 0
-1350 -1365 0
-1350 -1366 0
-1350 -1367 0
-1350 -1368 0
-1350 -1369 0
-1350 -1370 0
-1350 -1371 0
-1350 -1372 0
-1350 -1373 0
-1350 -1374 0
-1350 -1375 0
-1350 -1376 0
-1350 -1377 0
-1350 -1378 0
-1350 -1379 0
-1350 -1380 0
-1350 -1381 0
-1350 -1382 0
-1350 -1383 0
-1350 -1384 0
-1350 -1385 0
-1350 -1386 0
-1350 -1387 0
-1350 -1388 0
-1350 -1389 0
-1350 -1390 0
-1350 -1391 0
-1350 -1392 0
-1350 -1393 0
-1350 -1394 0
-1350 -1395 0
-1350 -1396 0
-1350 -1397 0
-1350 -1398 0
-1350 -1399 0
-1350 -1400 0
-1350 -1401 0
-1350 -1402 0
-1350 -1403 0
-1350 -1404 0
-1350 -1405 0
-1350 -1406 0
-1350 -1407 0
-1350 -1408 0
-1350 -1409 0
-1350 -1410 0
-1351 -1352 0
-1351 -1353 0
-1351 -1354 0
-1351 -1355 0
-1351 -1356 0
-1351 -1357 0
-1351 -1358 0
-1351 -1359 0
-1351 -1360 0
-1351 -1361 0
-1351 -1362 0
-1351 -1363 0
-1351 -1364 0
-1351 -1365 0
-1351 -1366 0
-1351 -1367 0
-1351 -1368 0
-1351 -1369 0
-1351 -1370 0
-1351 -1371 0
-1351 -1372 0
-1351 -1373 0
-1351 -1374 0
-1351 -1375 0
-1351 -1376 0
-1351 -1377 0
-1351 -1378 0
-1351 -1379 0
-1351 -1380 0
-1351 -1381 0
-1351 -1382 0
-1351 -1383 0
-1351 -1384 0
-1351 -1385 0
-1351 -1386 0
-1351 -1387 0
-1351 -1388 0
-1351 -1389 0
-1351 -1390 0
-1351 -1391 0
-1351 -1392 0
-1351 -1393 0
-1351 -1394 0
-1351 -1395 0
-1351 -1396 0
-1351 -1397 0
-1351 -1398 0
-1351 -1399 0
-1351 -1400 0
-1351 -1401 0
-1351 -1402 0
-1351 -1403 0
-1351 -1404 0
-1351 -1405 0
-1351 -1406 0
-1351 -1407 0
-1351 -1408 0
-1351 -1409 0
-1351 -1410 0
-1352 -1353 0
-1352 -1354 0
-1352 -1355 0
-1352 -1356 0
-1352 -1357 0
-1352 -1358 0
-1352 -1359 0
-1352 -1360 0
-1352 -1361 0
-1352 -1362 0
-1352 -1363 0
-1352 -1364 0
-1352 -1365 0
-1352 -1366 0
-1352 -1367 0
-1352 -1368 0
-1352 -1369 0
-1352 -1370 0
-1352 -1371 0
-1352 -1372 0
-1352 -1373 0
-1352 -1374 0
-1352 -1375 0
-1352 -1376 0
-1352 -1377 0
-1352 -1378 0
-1352 -1379 0
-1352 -1380 0
-1352 -1381 0
-1352 -1382 0
-1352 -1383 0
-1352 -1384 0
-1352 -1385 0
-1352 -1386 0
-1352 -1387 0
-1352 -1388 0
-1352 -1389 0
-1352 -1390 0
-1352 -1391 0
-1352 -1392 0
-1352 -1393 0
-1352 -1394 0
-1352 -1395 0
-1352 -1396 0
-1352 -1397 0
-1352 -1398 0
-1352 -1399 0
-1352 -1400 0
-1352 -1401 0
-1352 -1402 0
-1352 -1403 0
-1352 -1404 0
-1352 -1405 0
-1352 -1406 0
-1352 -1407 0
-1352 -1408 0
-1352 -1409 0
-1352 -1410 0
-1353 -1354 0
-1353 -1355 0
-1353 -1356 0
-1353 -1357 0
-1353 -1358 0
-1353 -1359 0
-1353 -1360 0
-1353 -1361 0
-1353 -1362 0
-1353 -1363 0
-1353 -1364 0
-1353 -1365 0
-1353 -1366 0
-1353 -1367 0
-1353 -1368 0
-1353 -1369 0
-1353 -1370 0
-1353 -1371 0
-1353 -1372 0
-1353 -1373 0
-1353 -1374 0
-1353 -1375 0
-1353 -1376 0
-1353 -1377 0
-1353 -1378 0
-1353 -1379 0
-1353 -1380 0
-1353 -1381 0
-1353 -1382 0
-1353 -1383 0
-1353 -1384 0
-1353 -1385 0
-1353 -1386 0
-1353 -1387 0
-1353 -1388 0
-1353 -1389 0
-1353 -1390 0
-1353 -1391 0
-1353 -1392 0
-1353 -1393 0
-1353 -1394 0
-1353 -1395 0
-1353 -1396 0
-1353 -1397 0
-1353 -1398 0
-1353 -1399 0
-1353 -1400 0
-1353 -1401 0
-1353 -1402 0
-1353 -1403 0
-1353 -1404 0
-1353 -1405 0
-1353 -1406 0
-1353 -1407 0
-1353 -1408 0
-1353 -1409 0
-1353 -1410 0
-1354 -1355 0
-1354 -1356 0
-1354 -1357 0
-1354 -1358 0
-1354 -1359 0
-1354 -1360 0
-1354 -1361 0
-1354 -1362 0
-1354 -1363 0
-1354 -1364 0
-1354 -1365 0
-1354 -1366 0
-1354 -1367 0
-1354 -1368 0
-1354 -1369 0
-1354 -1370 0
-1354 -1371 0
-1354 -1372 0
-1354 -1373 0
-1354 -1374 0
-1354 -1375 0
-1354 -1376 0
-1354 -1377 0
-1354 -1378 0
-1354 -1379 0
-1354 -1380 0
-1354 -1381 0
-1354 -1382 0
-1354 -1383 0
-1354 -1384 0
-1354 -1385 0
-1354 -1386 0
-1354 -1387 0
-1354 -1388 0
-1354 -1389 0
-1354 -1390 0
-1354 -1391 0
-1354 -1392 0
-1354 -1393 0
-1354 -1394 0
-1354 -1395 0
-1354 -1396 0
-1354 -1397 0
-1354 -1398 0
-1354 -1399 0
-1354 -1400 0
-1354 -1401 0
-1354 -1402 0
-1354 -1403 0
-1354 -1404 0
-1354 -1405 0
-1354 -1406 0
-1354 -1407 0
-1354 -1408 0
-1354 -1409 0
-1354 -1410 0
-1355 -1356 0
-1355 -1357 0
-1355 -1358 0
-1355 -1359 0
-1355 -1360 0
-1355 -1361 0
-1355 -1362 0
-1355 -1363 0
-1355 -1364 0
-1355 -1365 0
-1355 -1366 0
-1355 -1367 0
-1355 -1368 0
-1355 -1369 0
-1355 -1370 0
-1355 -1371 0
-1355 -1372 0
-1355 -1373 0
-1355 -1374 0
-1355 -1375 0
-1355 -1376 0
-1355 -1377 0
-1355 -1378 0
-1355 -1379 0
-1355 -1380 0
-1355 -1381 0
-1355 -1382 0
-1355 -1383 0
-1355 -1384 0
-1355 -1385 0
-1355 -1386 0
-1355 -1387 0
-1355 -1388 0
-1355 -1389 0
-1355 -1390 0
-1355 -1391 0
-1355 -1392 0
-1355 -1393 0
-1355 -1394 0
-1355 -1395 0
-1355 -1396 0
-1355 -1397 0
-1355 -1398 0
-1355 -1399 0
-1355 -1400 0
-1355 -1401 0
-1355 -1402 0
-1355 -1403 0
-1355 -1404 0
-1355 -1405 0
-1355 -1406 0
-1355 -1407 0
-1355 -1408 0
-1355 -1409 0
-1355 -1410 0
-1356 -1357 0
-1356 -1358 0
-1356 -1359 0
-1356 -1360 0
-1356 -1361 0
-1356 -1362 0
-1356 -1363 0
-1356 -1364 0
-1356 -1365 0
-1356 -1366 0
-1356 -1367 0
-1356 -1368 0
-1356 -1369 0
-1356 -1370 0
-1356 -1371 0
-1356 -1372 0
-1356 -1373 0
-1356 -1374 0
-1356 -1375 0
-1356 -1376 0
-1356 -1377 0
-1356 -1378 0
-1356 -1379 0
-1356 -1380 0
-1356 -1381 0
-1356 -1382 0
-1356 -1383 0
-1356 -1384 0
-1356 -1385 0
-1356 -1386 0
-1356 -1387 0
-1356 -1388 0
-1356 -1389 0
-1356 -1390 0
-1356 -1391 0
-1356 -1392 0
-1356 -1393 0
-1356 -1394 0
-1356 -1395 0
-1356 -1396 0
-1356 -1397 0
-1356 -1398 0
-1356 -1399 0
-1356 -1400 0
-1356 -1401 0
-1356 -1402 0
-1356 -1403 0
-1356 -1404 0
-1356 -1405 0
-1356 -1406 0
-1356 -1407 0
-1356 -1408 0
-1356 -1409 0
-1356 -1410 0
-1357 -1358 0
-1357 -1359 0
-1357 -1360 0
-1357 -1361 0
-1357 -1362 0
-1357 -1363 0
-1357 -1364 0
-1357 -1365 0
-1357 -1366 0
-1357 -1367 0
-1357 -1368 0
-1357 -1369 0
-1357 -1370 0
-1357 -1371 0
-1357 -1372 0
-1357 -1373 0
-1357 -1374 0
-1357 -1375 0
-1357 -1376 0
-1357 -1377 0
-1357 -1378 0
-1357 -1379 0
-1357 -1380 0
-1357 -1381 0
-1357 -1382 0
-1357 -1383 0
-1357 -1384 0
-1357 -1385 0
-1357 -1386 0
-1357 -1387 0
-1357 -1388 0
-1357 -1389 0
-1357 -1390 0
-1357 -1391 0
-1357 -1392 0
-1357 -1393 0
-1357 -1394 0
-1357 -1395 0
-1357 -1396 0
-1357 -1397 0
-1357 -1398 0
-1357 -1399 0
-1357 -1400 0
-1357 -1401 0
-1357 -1402 0
-1357 -1403 0
-1357 -1404 0
-1357 -1405 0
-1357 -1406 0
-1357 -1407 0
-1357 -1408 0
-1357 -1409 0
-1357 -1410 0
-1358 -1359 0
-1358 -1360 0
-1358 -1361 0
-1358 -1362 0
-1358 -1363 0
-1358 -1364 0
-1358 -1365 0
-1358 -1366 0
-1358 -1367 0
-1358 -1368 0
-1358 -1369 0
-1358 -1370 0
-1358 -1371 0
-1358 -1372 0
-1358 -1373 0
-1358 -1374 0
-1358 -1375 0
-1358 -1376 0
-1358 -1377 0
-1358 -1378 0
-1358 -1379 0
-1358 -1380 0
-1358 -1381 0
-1358 -1382 0
-1358 -1383 0
-1358 -1384 0
-1358 -1385 0
-1358 -1386 0
-1358 -1387 0
-1358 -1388 0
-1358 -1389 0
-1358 -1390 0
-1358 -1391 0
-1358 -1392 0
-1358 -1393 0
-1358 -1394 0
-1358 -1395 0
-1358 -1396 0
-1358 -1397 0
-1358 -1398 0
-1358 -1399 0
-1358 -1400 0
-1358 -1401 0
-1358 -1402 0
-1358 -1403 0
-1358 -1404 0
-1358 -1405 0
-1358 -1406 0
-1358 -1407 0
-1358 -1408 0
-1358 -1409 0
-1358 -1410 0
-1359 -1360 0
-1359 -1361 0
-1359 -1362 0
-1359 -1363 0
-1359 -1364 0
-1359 -1365 0
-1359 -1366 0
-1359 -1367 0
-1359 -1368 0
-1359 -1369 0
-1359 -1370 0
-1359 -1371 0
-1359 -1372 0
-1359 -1373 0
-1359 -1374 0
-1359 -1375 0
-1359 -1376 0
-1359 -1377 0
-1359 -1378 0
-1359 -1379 0
-1359 -1380 0
-1359 -1381 0
-1359 -1382 0
-1359 -1383 0
-1359 -1384 0
-1359 -1385 0
-1359 -1386 0
-1359 -1387 0
-1359 -1388 0
-1359 -1389 0
-1359 -1390 0
-1359 -1391 0
-1359 -1392 0
-1359 -1393 0
-1359 -1394 0
-1359 -1395 0
-1359 -1396 0
-1359 -1397 0
-1359 -1398 0
-1359 -1399 0
-1359 -1400 0
-1359 -1401 0
-1359 -1402 0
-1359 -1403 0
-1359 -1404 0
-1359 -1405 0
-1359 -1406 0
-1359 -1407 0
-1359 -1408 0
-1359 -1409 0
-1359 -1410 0
-1360 -1361 0
-1360 -1362 0
-1360 -1363 0
-1360 -1364 0
-1360 -1365 0
-1360 -1366 0
-1360 -1367 0
-1360 -1368 0
-1360 -1369 0
-1360 -1370 0
-1360 -1371 0
-1360 -1372 0
-1360 -1373 0
-1360 -1374 0
-1360 -1375 0
-1360 -1376 0
-1360 -1377 0
-1360 -1378 0
-1360 -1379 0
-1360 -1380 0
-1360 -1381 0
-1360 -1382 0
-1360 -1383 0
-1360 -1384 0
-1360 -1385 0
-1360 -1386 0
-1360 -1387 0
-1360 -1388 0
-1360 -1389 0
-1360 -1390 0
-1360 -1391 0
-1360 -1392 0
-1360 -1393 0
-1360 -1394 0
-1360 -1395 0
-1360 -1396 0
-1360 -1397 0
-1360 -1398 0
-1360 -1399 0
-1360 -1400 0
-1360 -1401 0
-1360 -1402 0
-1360 -1403 0
-1360 -1404 0
-1360 -1405 0
-1360 -1406 0
-1360 -1407 0
-1360 -1408 0
-1360 -1409 0
-1360 -1410 0
-1361 -1362 0
-1361 -1363 0
-1361 -1364 0
-1361 -1365 0
-1361 -1366 0
-1361 -1367 0
-1361 -1368 0
-1361 -1369 0
-1361 -1370 0
-1361 -1371 0
-1361 -1372 0
-1361 -1373 0
-1361 -1374 0
-1361 -1375 0
-1361 -1376 0
-1361 -1377 0
-1361 -1378 0
-1361 -1379 0
-1361 -1380 0
-1361 -1381 0
-1361 -1382 0
-1361 -1383 0
-1361 -1384 0
-1361 -1385 0
-1361 -1386 0
-1361 -1387 0
-1361 -1388 0
-1361 -1389 0
-1361 -1390 0
-1361 -1391 0
-1361 -1392 0
-1361 -1393 0
-1361 -1394 0
-1361 -1395 0
-1361 -1396 0
-1361 -1397 0
-1361 -1398 0
-1361 -1399 0
-1361 -1400 0
-1361 -1401 0
-1361 -1402 0
-1361 -1403 0
-1361 -1404 0
-1361 -1405 0
-1361 -1406 0
-1361 -1407 0
-1361 -1408 0
-1361 -1409 0
-1361 -1410 0
-1362 -1363 0
-1362 -1364 0
-1362 -1365 0
-1362 -1366 0
-1362 -1367 0
-1362 -1368 0
-1362 -1369 0
-1362 -1370 0
-1362 -1371 0
-1362 -1372 0
-1362 -1373 0
-1362 -1374 0
-1362 -1375 0
-1362 -1376 0
-1362 -1377 0
-1362 -1378 0
-1362 -1379 0
-1362 -1380 0
-1362 -1381 0
-1362 -1382 0
-1362 -1383 0
-1362 -1384 0
-1362 -1385 0
-1362 -1386 0
-1362 -1387 0
-1362 -1388 0
-1362 -1389 0
-1362 -1390 0
-1362 -1391 0
-1362 -1392 0
-1362 -1393 0
-1362 -1394 0
-1362 -1395 0
-1362 -1396 0
-1362 -1397 0
-1362 -1398 0
-1362 -1399 0
-1362 -1400 0
-1362 -1401 0
-1362 -1402 0
-1362 -1403 0
-1362 -1404 0
-1362 -1405 0
-1362 -1406 0
-1362 -1407 0
-1362 -1408 0
-1362 -1409 0
-1362 -1410 0
-1363 -1364 0
-1363 -1365 0
-1363 -1366 0
-1363 -1367 0
-1363 -1368 0
-1363 -1369 0
-1363 -1370 0
-1363 -1371 0
-1363 -1372 0
-1363 -1373 0
-1363 -1374 0
-1363 -1375 0
-1363 -1376 0
-1363 -1377 0
-1363 -1378 0
-1363 -1379 0
-1363 -1380 0
-1363 -1381 0
-1363 -1382 0
-1363 -1383 0
-1363 -1384 0
-1363 -1385 0
-1363 -1386 0
-1363 -1387 0
-1363 -1388 0
-1363 -1389 0
-1363 -1390 0
-1363 -1391 0
-1363 -1392 0
-1363 -1393 0
-1363 -1394 0
-1363 -1395 0
-1363 -1396 0
-1363 -1397 0
-1363 -1398 0
-1363 -1399 0
-1363 -1400 0
-1363 -1401 0
-1363 -1402 0
-1363 -1403 0
-1363 -1404 0
-1363 -1405 0
-1363 -1406 0
-1363 -1407 0
-1363 -1408 0
-1363 -1409 0
-1363 -1410 0
-1364 -1365 0
-1364 -1366 0
-1364 -1367 0
-1364 -1368 0
-1364 -1369 0
-1364 -1370 0
-1364 -1371 0
-1364 -1372 0
-1364 -1373 0
-1364 -1374 0
-1364 -1375 0
-1364 -1376 0
-1364 -1377 0
-1364 -1378 0
-1364 -1379 0
-1364 -1380 0
-1364 -1381 0
-1364 -1382 0
-1364 -1383 0
-1364 -1384 0
-1364 -1385 0
-1364 -1386 0
-1364 -1387 0
-1364 -1388 0
-1364 -1389 0
-1364 -1390 0
-1364 -1391 0
-1364 -1392 0
-1364 -1393 0
-1364 -1394 0
-1364 -1395 0
-1364 -1396 0
-1364 -1397 0
-1364 -1398 0
-1364 -1399 0
-1364 -1400 0
-1364 -1401 0
-1364 -1402 0
-1364 -1403 0
-1364 -1404 0
-1364 -1405 0
-1364 -1406 0
-1364 -1407 0
-1364 -1408 0
-1364 -1409 0
-1364 -1410 0
-1365 -1366 0
-1365 -1367 0
-1365 -1368 0
-1365 -1369 0
-1365 -1370 0
-1365 -1371 0
-1365 -1372 0
-1365 -1373 0
-1365 -1374 0
-1365 -1375 0
-1365 -1376 0
-1365 -1377 0
-1365 -1378 0
-1365 -1379 0
-1365 -1380 0
-1365 -1381 0
-1365 -1382 0
-1365 -1383 0
-1365 -1384 0
-1365 -1385 0
-1365 -1386 0
-1365 -1387 0
-1365 -1388 0
-1365 -1389 0
-1365 -1390 0
-1365 -1391 0
-1365 -1392 0
-1365 -1393 0
-1365 -1394 0
-1365 -1395 0
-1365 -1396 0
-1365 -1397 0
-1365 -1398 0
-1365 -1399 0
-1365 -1400 0
-1365 -1401 0
-1365 -1402 0
-1365 -1403 0
-1365 -1404 0
-1365 -1405 0
-1365 -1406 0
-1365 -1407 0
-1365 -1408 0
-1365 -1409 0
-1365 -1410 0
-1366 -1367 0
-1366 -1368 0
-1366 -1369 0
-1366 -1370 0
-1366 -1371 0
-1366 -1372 0
-1366 -1373 0
-1366 -1374 0
-1366 -1375 0
-1366 -1376 0
-1366 -1377 0
-1366 -1378 0
-1366 -1379 0
-1366 -1380 0
-1366 -1381 0
-1366 -1382 0
-1366 -1383 0
-1366 -1384 0
-1366 -1385 0
-1366 -1386 0
-1366 -1387 0
-1366 -1388 0
-1366 -1389 0
-1366 -1390 0
-1366 -1391 0
-1366 -1392 0
-1366 -1393 0
-1366 -1394 0
-1366 -1395 0
-1366 -1396 0
-1366 -1397 0
-1366 -1398 0
-1366 -1399 0
-1366 -1400 0
-1366 -1401 0
-1366 -1402 0
-1366 -1403 0
-1366 -1404 0
-1366 -1405 0
-1366 -1406 0
-1366 -1407 0
-1366 -1408 0
-1366 -1409 0
-1366 -1410 0
-1367 -1368 0
-1367 -1369 0
-1367 -1370 0
-1367 -1371 0
-1367 -1372 0
-1367 -1373 0
-1367 -1374 0
-1367 -1375 0
-1367 -1376 0
-1367 -1377 0
-1367 -1378 0
-1367 -1379 0
-1367 -1380 0
-1367 -1381 0
-1367 -1382 0
-1367 -1383 0
-1367 -1384 0
-1367 -1385 0
-1367 -1386 0
-1367 -1387 0
-1367 -1388 0
-1367 -1389 0
-1367 -1390 0
-1367 -1391 0
-1367 -1392 0
-1367 -1393 0
-1367 -1394 0
-1367 -1395 0
-1367 -1396 0
-1367 -1397 0
-1367 -1398 0
-1367 -1399 0
-1367 -1400 0
-1367 -1401 0
-1367 -1402 0
-1367 -1403 0
-1367 -1404 0
-1367 -1405 0
-1367 -1406 0
-1367 -1407 0
-1367 -1408 0
-1367 -1409 0
-1367 -1410 0
-1368 -1369 0
-1368 -1370 0
-1368 -1371 0
-1368 -1372 0
-1368 -1373 0
-1368 -1374 0
-1368 -1375 0
-1368 -1376 0
-1368 -1377 0
-1368 -1378 0
-1368 -1379 0
-1368 -1380 0
-1368 -1381 0
-1368 -1382 0
-1368 -1383 0
-1368 -1384 0
-1368 -1385 0
-1368 -1386 0
-1368 -1387 0
-1368 -1388 0
-1368 -1389 0
-1368 -1390 0
-1368 -1391 0
-1368 -1392 0
-1368 -1393 0
-1368 -1394 0
-1368 -1395 0
-1368 -1396 0
-1368 -1397 0
-1368 -1398 0
-1368 -1399 0
-1368 -1400 0
-1368 -1401 0
-1368 -1402 0
-1368 -1403 0
-1368 -1404 0
-1368 -1405 0
-1368 -1406 0
-1368 -1407 0
-1368 -1408 0
-1368 -1409 0
-1368 -1410 0
-1369 -1370 0
-1369 -1371 0
-1369 -1372 0
-1369 -1373 0
-1369 -1374 0
-1369 -1375 0
-1369 -1376 0
-1369 -1377 0
-1369 -1378 0
-1369 -1379 0
-1369 -1380 0
-1369 -1381 0
-1369 -1382 0
-1369 -1383 0
-1369 -1384 0
-1369 -1385 0
-1369 -1386 0
-1369 -1387 0
-1369 -1388 0
-1369 -1389 0
-1369 -1390 0
-1369 -1391 0
-1369 -1392 0
-1369 -1393 0
-1369 -1394 0
-1369 -1395 0
-1369 -1396 0
-1369 -1397 0
-1369 -1398 0
-1369 -1399 0
-1369 -1400 0
-1369 -1401 0
-1369 -1402 0
-1369 -1403 0
-1369 -1404 0
-1369 -1405 0
-1369 -1406 0
-1369 -1407 0
-1369 -1408 0
-1369 -1409 0
-1369 -1410 0
-1370 -1371 0
-1370 -1372 0
-1370 -1373 0
-1370 -1374 0
-1370 -1375 0
-1370 -1376 0
-1370 -1377 0
-1370 -1378 0
-1370 -1379 0
-1370 -1380 0
-1370 -1381 0
-1370 -1382 0
-1370 -1383 0
-1370 -1384 0
-1370 -1385 0
-1370 -1386 0
-1370 -1387 0
-1370 -1388 0
-1370 -1389 0
-1370 -1390 0
-1370 -1391 0
-1370 -1392 0
-1370 -1393 0
-1370 -1394 0
-1370 -1395 0
-1370 -1396 0
-1370 -1397 0
-1370 -1398 0
-1370 -1399 0
-1370 -1400 0
-1370 -1401 0
-1370 -1402 0
-1370 -1403 0
-1370 -1404 0
-1370 -1405 0
-1370 -1406 0
-1370 -1407 0
-1370 -1408 0
-1370 -1409 0
-1370 -1410 0
-1371 -1372 0
-1371 -1373 0
-1371 -1374 0
-1371 -1375 0
-1371 -1376 0
-1371 -1377 0
-1371 -1378 0
-1371 -1379 0
-1371 -1380 0
-1371 -1381 0
-1371 -1382 0
-1371 -1383 0
-1371 -1384 0
-1371 -1385 0
-1371 -1386 0
-1371 -1387 0
-1371 -1388 0
-1371 -1389 0
-1371 -1390 0
-1371 -1391 0
-1371 -1392 0
-1371 -1393 0
-1371 -1394 0
-1371 -1395 0
-1371 -1396 0
-1371 -1397 0
-1371 -1398 0
-1371 -1399 0
-1371 -1400 0
-1371 -1401 0
-1371 -1402 0
-1371 -1403 0
-1371 -1404 0
-1371 -1405 0
-1371 -1406 0
-1371 -1407 0
-1371 -1408 0
-1371 -1409 0
-1371 -1410 0
-1372 -1373 0
-1372 -1374 0
-1372 -1375 0
-1372 -1376 0
-1372 -1377 0
-1372 -1378 0
-1372 -1379 0
-1372 -1380 0
-1372 -1381 0
-1372 -1382 0
-1372 -1383 0
-1372 -1384 0
-1372 -1385 0
-1372 -1386 0
-1372 -1387 0
-1372 -1388 0
-1372 -1389 0
-1372 -1390 0
-1372 -1391 0
-1372 -1392 0
-1372 -1393 0
-1372 -1394 0
-1372 -1395 0
-1372 -1396 0
-1372 -1397 0
-1372 -1398 0
-1372 -1399 0
-1372 -1400 0
-1372 -1401 0
-1372 -1402 0
-1372 -1403 0
-1372 -1404 0
-1372 -1405 0
-1372 -1406 0
-1372 -1407 0
-1372 -1408 0
-1372 -1409 0
-1372 -1410 0
-1373 -1374 0
-1373 -1375 0
-1373 -1376 0
-1373 -1377 0
-1373 -1378 0
-1373 -1379 0
-1373 -1380 0
-1373 -1381 0
-1373 -1382 0
-1373 -1383 0
-1373 -1384 0
-1373 -1385 0
-1373 -1386 0
-1373 -1387 0
-1373 -1388 0
-1373 -1389 0
-1373 -1390 0
-1373 -1391 0
-1373 -1392 0
-1373 -1393 0
-1373 -1394 0
-1373 -1395 0
-1373 -1396 0
-1373 -1397 0
-1373 -1398 0
-1373 -1399 0
-1373 -1400 0
-1373 -1401 0
-1373 -1402 0
-1373 -1403 0
-1373 -1404 0
-1373 -1405 0
-1373 -1406 0
-1373 -1407 0
-1373 -1408 0
-1373 -1409 0
-1373 -1410 0
-1374 -1375 0
-1374 -1376 0
-1374 -1377 0
-1374 -1378 0
-1374 -1379 0
-1374 -1380 0
-1374 -1381 0
-1374 -1382 0
-1374 -1383 0
-1374 -1384 0
-1374 -1385 0
-1374 -1386 0
-1374 -1387 0
-1374 -1388 0
-1374 -1389 0
-1374 -1390 0
-1374 -1391 0
-1374 -1392 0
-1374 -1393 0
-1374 -1394 0
-1374 -1395 0
-1374 -1396 0
-1374 -1397 0
-1374 -1398 0
-1374 -1399 0
-1374 -1400 0
-1374 -1401 0
-1374 -1402 0
-1374 -1403 0
-1374 -1404 0
-1374 -1405 0
-1374 -1406 0
-1374 -1407 0
-1374 -1408 0
-1374 -1409 0
-1374 -1410 0
-1375 -1376 0
-1375 -1377 0
-1375 -1378 0
-1375 -1379 0
-1375 -1380 0
-1375 -1381 0
-1375 -1382 0
-1375 -1383 0
-1375 -1384 0
-1375 -1385 0
-1375 -1386 0
-1375 -1387 0
-1375 -1388 0
-1375 -1389 0
-1375 -1390 0
-1375 -1391 0
-1375 -1392 0
-1375 -1393 0
-1375 -1394 0
-1375 -1395 0
-1375 -1396 0
-1375 -1397 0
-1375 -1398 0
-1375 -1399 0
-1375 -1400 0
-1375 -1401 0
-1375 -1402 0
-1375 -1403 0
-1375 -1404 0
-1375 -1405 0
-1375 -1406 0
-1375 -1407 0
-1375 -1408 0
-1375 -1409 0
-1375 -1410 0
-1376 -1377 0
-1376 -1378 0
-1376 -1379 0
-1376 -1380 0
-1376 -1381 0
-1376 -1382 0
-1376 -1383 0
-1376 -1384 0
-1376 -1385 0
-1376 -1386 0
-1376 -1387 0
-1376 -1388 0
-1376 -1389 0
-1376 -1390 0
-1376 -1391 0
-1376 -1392 0
-1376 -1393 0
-1376 -1394 0
-1376 -1395 0
-1376 -1396 0
-1376 -1397 0
-1376 -1398 0
-1376 -1399 0
-1376 -1400 0
-1376 -1401 0
-1376 -1402 0
-1376 -1403 0
-1376 -1404 0
-1376 -1405 0
-1376 -1406 0
-1376 -1407 0
-1376 -1408 0
-1376 -1409 0
-1376 -1410 0
-1377 -1378 0
-1377 -1379 0
-1377 -1380 0
-1377 -1381 0
-1377 -1382 0
-1377 -1383 0
-1377 -1384 0
-1377 -1385 0
-1377 -1386 0
-1377 -1387 0
-1377 -1388 0
-1377 -1389 0
-1377 -1390 0
-1377 -1391 0
-1377 -1392 0
-1377 -1393 0
-1377 -1394 0
-1377 -1395 0
-1377 -1396 0
-1377 -1397 0
-1377 -1398 0
-1377 -1399 0
-1377 -1400 0
-1377 -1401 0
-1377 -1402 0
-1377 -1403 0
-1377 -1404 0
-1377 -1405 0
-1377 -1406 0
-1377 -1407 0
-1377 -1408 0
-1377 -1409 0
-1377 -1410 0
-1378 -1379 0
-1378 -1380 0
-1378 -1381 0
-1378 -1382 0
-1378 -1383 0
-1378 -1384 0
-1378 -1385 0
-1378 -1386 0
-1378 -1387 0
-1378 -1388 0
-1378 -1389 0
-1378 -1390 0
-1378 -1391 0
-1378 -1392 0
-1378 -1393 0
-1378 -1394 0
-1378 -1395 0
-1378 -1396 0
-1378 -1397 0
-1378 -1398 0
-1378 -1399 0
-1378 -1400 0
-1378 -1401 0
-1378 -1402 0
-1378 -1403 0
-1378 -1404 0
-1378 -1405 0
-1378 -1406 0
-1378 -1407 0
-1378 -1408 0
-1378 -1409 0
-1378 -1410 0
-1379 -1380 0
-1379 -1381 0
-1379 -1382 0
-1379 -1383 0
-1379 -1384 0
-1379 -1385 0
-1379 -1386 0
-1379 -1387 0
-1379 -1388 0
-1379 -1389 0
-1379 -1390 0
-1379 -1391 0
-1379 -1392 0
-1379 -1393 0
-1379 -1394 0
-1379 -1395 0
-1379 -1396 0
-1379 -1397 0
-1379 -1398 0
-1379 -1399 0
-1379 -1400 0
-1379 -1401 0
-1379 -1402 0
-1379 -1403 0
-1379 -1404 0
-1379 -1405 0
-1379 -1406 0
-1379 -1407 0
-1379 -1408 0
-1379 -1409 0
-1379 -1410 0
-1380 -1381 0
-1380 -1382 0
-1380 -1383 0
-1380 -1384 0
-1380 -1385 0
-1380 -1386 0
-1380 -1387 0
-1380 -1388 0
-1380 -1389 0
-1380 -1390 0
-1380 -1391 0
-1380 -1392 0
-1380 -1393 0
-1380 -1394 0
-1380 -1395 0
-1380 -1396 0
-1380 -1397 0
-1380 -1398 0
-1380 -1399 0
-1380 -1400 0
-1380 -1401 0
-1380 -1402 0
-1380 -1403 0
-1380 -1404 0
-1380 -1405 0
-1380 -1406 0
-1380 -1407 0
-1380 -1408 0
-1380 -1409 0
-1380 -1410 0
-1381 -1382 0
-1381 -1383 0
-1381 -1384 0
-1381 -1385 0
-1381 -1386 0
-1381 -1387 0
-1381 -1388 0
-1381 -1389 0
-1381 -1390 0
-1381 -1391 0
-1381 -1392 0
-1381 -1393 0
-1381 -1394 0
-1381 -1395 0
-1381 -1396 0
-1381 -1397 0
-1381 -1398 0
-1381 -1399 0
-1381 -1400 0
-1381 -1401 0
-1381 -1402 0
-1381 -1403 0
-1381 -1404 0
-1381 -1405 0
-1381 -1406 0
-1381 -1407 0
-1381 -1408 0
-1381 -1409 0
-1381 -1410 0
-1382 -1383 0
-1382 -1384 0
-1382 -1385 0
-1382 -1386 0
-1382 -1387 0
-1382 -1388 0
-1382 -1389 0
-1382 -1390 0
-1382 -1391 0
-1382 -1392 0
-1382 -1393 0
-1382 -1394 0
-1382 -1395 0
-1382 -1396 0
-1382 -1397 0
-1382 -1398 0
-1382 -1399 0
-1382 -1400 0
-1382 -1401 0
-1382 -1402 0
-1382 -1403 0
-1382 -1404 0
-1382 -1405 0
-1382 -1406 0
-1382 -1407 0
-1382 -1408 0
-1382 -1409 0
-1382 -1410 0
-1383 -1384 0
-1383 -1385 0
-1383 -1386 0
-1383 -1387 0
-1383 -1388 0
-1383 -1389 0
-1383 -1390 0
-1383 -1391 0
-1383 -1392 0
-1383 -1393 0
-1383 -1394 0
-1383 -1395 0
-1383 -1396 0
-1383 -1397 0
-1383 -1398 0
-1383 -1399 0
-1383 -1400 0
-1383 -1401 0
-1383 -1402 0
-1383 -1403 0
-1383 -1404 0
-1383 -1405 0
-1383 -1406 0
-1383 -1407 0
-1383 -1408 0
-1383 -1409 0
-1383 -1410 0
-1384 -1385 0
-1384 -1386 0
-1384 -1387 0
-1384 -1388 0
-1384 -1389 0
-1384 -1390 0
-1384 -1391 0
-1384 -1392 0
-1384 -1393 0
-1384 -1394 0
-1384 -1395 0
-1384 -1396 0
-1384 -1397 0
-1384 -1398 0
-1384 -1399 0
-1384 -1400 0
-1384 -1401 0
-1384 -1402 0
-1384 -1403 0
-1384 -1404 0
-1384 -1405 0
-1384 -1406 0
-1384 -1407 0
-1384 -1408 0
-1384 -1409 0
-1384 -1410 0
-1385 -1386 0
-1385 -1387 0
-1385 -1388 0
-1385 -1389 0
-1385 -1390 0
-1385 -1391 0
-1385 -1392 0
-1385 -1393 0
-1385 -1394 0
-1385 -1395 0
-1385 -1396 0
-1385 -1397 0
-1385 -1398 0
-1385 -1399 0
-1385 -1400 0
-1385 -1401 0
-1385 -1402 0
-1385 -1403 0
-1385 -1404 0
-1385 -1405 0
-1385 -1406 0
-1385 -1407 0
-1385 -1408 0
-1385 -1409 0
-1385 -1410 0
-1386 -1387 0
-1386 -1388 0
-1386 -1389 0
-1386 -1390 0
-1386 -1391 0
-1386 -1392 0
-1386 -1393 0
-1386 -1394 0
-1386 -1395 0
-1386 -1396 0
-1386 -1397 0
-1386 -1398 0
-1386 -1399 0
-1386 -1400 0
-1386 -1401 0
-1386 -1402 0
-1386 -1403 0
-1386 -1404 0
-1386 -1405 0
-1386 -1406 0
-1386 -1407 0
-1386 -1408 0
-1386 -1409 0
-1386 -1410 0
-1387 -1388 0
-1387 -1389 0
-1387 -1390 0
-1387 -1391 0
-1387 -1392 0
-1387 -1393 0
-1387 -1394 0
-1387 -1395 0
-1387 -1396 0
-1387 -1397 0
-1387 -1398 0
-1387 -1399 0
-1387 -1400 0
-1387 -1401 0
-1387 -1402 0
-1387 -1403 0
-1387 -1404 0
-1387 -1405 0
-1387 -1406 0
-1387 -1407 0
-1387 -1408 0
-1387 -1409 0
-1387 -1410 0
-1388 -1389 0
-1388 -1390 0
-1388 -1391 0
-1388 -1392 0
-1388 -1393 0
-1388 -1394 0
-1388 -1395 0
-1388 -1396 0
-1388 -1397 0
-1388 -1398 0
-1388 -1399 0
-1388 -1400 0
-1388 -1401 0
-1388 -1402 0
-1388 -1403 0
-1388 -1404 0
-1388 -1405 0
-1388 -1406 0
-1388 -1407 0
-1388 -1408 0
-1388 -1409 0
-1388 -1410 0
-1389 -1390 0
-1389 -1391 0
-1389 -1392 0
-1389 -1393 0
-1389 -1394 0
-1389 -1395 0
-1389 -1396 0
-1389 -1397 0
-1389 -1398 0
-1389 -1399 0
-1389 -1400 0
-1389 -1401 0
-1389 -1402 0
-1389 -1403 0
-1389 -1404 0
-1389 -1405 0
-1389 -1406 0
-1389 -1407 0
-1389 -1408 0
-1389 -1409 0
-1389 -1410 0
-1390 -1391 0
-1390 -1392 0
-1390 -1393 0
-1390 -1394 0
-1390 -1395 0
-1390 -1396 0
-1390 -1397 0
-1390 -1398 0
-1390 -1399 0
-1390 -1400 0
-1390 -1401 0
-1390 -1402 0
-1390 -1403 0
-1390 -1404 0
-1390 -1405 0
-1390 -1406 0
-1390 -1407 0
-1390 -1408 0
-1390 -1409 0
-1390 -1410 0
-1391 -1392 0
-1391 -1393 0
-1391 -1394 0
-1391 -1395 0
-1391 -1396 0
-1391 -1397 0
-1391 -1398 0
-1391 -1399 0
-1391 -1400 0
-1391 -1401 0
-1391 -1402 0
-1391 -1403 0
-1391 -1404 0
-1391 -1405 0
-1391 -1406 0
-1391 -1407 0
-1391 -1408 0
-1391 -1409 0
-1391 -1410 0
-1392 -1393 0
-1392 -1394 0
-1392 -1395 0
-1392 -1396 0
-1392 -1397 0
-1392 -1398 0
-1392 -1399 0
-1392 -1400 0
-1392 -1401 0
-1392 -1402 0
-1392 -1403 0
-1392 -1404 0
-1392 -1405 0
-1392 -1406 0
-1392 -1407 0
-1392 -1408 0
-1392 -1409 0
-1392 -1410 0
-1393 -1394 0
-1393 -1395 0
-1393 -1396 0
-1393 -1397 0
-1393 -1398 0
-1393 -1399 0
-1393 -1400 0
-1393 -1401 0
-1393 -1402 0
-1393 -1403 0
-1393 -1404 0
-1393 -1405 0
-1393 -1406 0
-1393 -1407 0
-1393 -1408 0
-1393 -1409 0
-1393 -1410 0
-1394 -1395 0
-1394 -1396 0
-1394 -1397 0
-1394 -1398 0
-1394 -1399 0
-1394 -1400 0
-1394 -1401 0
-1394 -1402 0
-1394 -1403 0
-1394 -1404 0
-1394 -1405 0
-1394 -1406 0
-1394 -1407 0
-1394 -1408 0
-1394 -1409 0
-1394 -1410 0
-1395 -1396 0
-1395 -1397 0
-1395 -1398 0
-1395 -1399 0
-1395 -1400 0
-1395 -1401 0
-1395 -1402 0
-1395 -1403 0
-1395 -1404 0
-1395 -1405 0
-1395 -1406 0
-1395 -1407 0
-1395 -1408 0
-1395 -1409 0
-1395 -1410 0
-1396 -1397 0
-1396 -1398 0
-1396 -1399 0
-1396 -1400 0
-1396 -1401 0
-1396 -1402 0
-1396 -1403 0
-1396 -1404 0
-1396 -1405 0
-1396 -1406 0
-1396 -1407 0
-1396 -1408 0
-1396 -1409 0
-1396 -1410 0
-1397 -1398 0
-1397 -1399 0
-1397 -1400 0
-1397 -1401 0
-1397 -1402 0
-1397 -1403 0
-1397 -1404 0
-1397 -1405 0
-1397 -1406 0
-1397 -1407 0
-1397 -1408 0
-1397 -1409 0
-1397 -1410 0
-1398 -1399 0
-1398 -1400 0
-1398 -1401 0
-1398 -1402 0
-1398 -1403 0
-1398 -1404 0
-1398 -1405 0
-1398 -1406 0
-1398 -1407 0
-1398 -1408 0
-1398 -1409 0
-1398 -1410 0
-1399 -1400 0
-1399 -1401 0
-1399 -1402 0
-1399 -1403 0
-1399 -1404 0
-1399 -1405 0
-1399 -1406 0
-1399 -1407 0
-1399 -1408 0
-1399 -1409 0
-1399 -1410 0
-1400 -1401 0
-1400 -1402 0
-1400 -1403 0
-1400 -1404 0
-1400 -1405 0
-1400 -1406 0
-1400 -1407 0
-1400 -1408 0
-1400 -1409 0
-1400 -1410 0
-1401 -1402 0
-1401 -1403 0
-1401 -1404 0
-1401 -1405 0
-1401 -1406 0
-1401 -1407 0
-1401 -1408 0
-1401 -1409 0
-1401 -1410 0
-1402 -1403 0
-1402 -1404 0
-1402 -1405 0
-1402 -1406 0
-1402 -1407 0
-1402 -1408 0
-1402 -1409 0
-1402 -1410 0
-1403 -1404 0
-1403 -1405 0
-1403 -1406 0
-1403 -1407 0
-1403 -1408 0
-1403 -1409 0
-1403 -1410 0
-1404 -1405 0
-1404 -1406 0
-1404 -1407 0
-1404 -1408 0
-1404 -1409 0
-1404 -1410 0
-1405 -1406 0
-1405 -1407 0
-1405 -1408 0
-1405 -1409 0
-1405 -1410 0
-1406 -1407 0
-1406 -1408 0
-1406 -1409 0
-1406 -1410 0
-1407 -1408 0
-1407 -1409 0
-1407 -1410 0
-1408 -1409 0
-1408 -1410 0
-1409 -1410 0
1411 1412 1413 1414 1415 1416 1417 1418 1419 1420 1421 1422 1423 1424 1425 1426 1427 1428 1429 1430 1431 1432 1433 1434 1435 1436 1437 1438 1439 1440 1441 1442 1443 1444 1445 1446 1447 1448 1449 1450 1451 1452 1453 1454 1455 1456 1457 1458 1459 1460 1461 1462 1463 1464 1465 1466 1467 1468 1469 1470 1471 1472 1473 1474 1475 1476 1477 1478 1479 1480 1481 1482 1483 1484 1485 1486 1487 1488 1489 1490 1491 1492 1493 1494 0
-1411 -1412 0
-1411 -1413 0
-1411 -1414 0
-1411 -1415 0
-1411 -1416 0
-1411 -1417 0
-1411 -1418 0
-1411 -1419 0
-1411 -1420 0
-1411 -1421 0
-1411 -1422 0
-1411 -1423 0
-1411 -1424 0
-1411 -1425 0
-1411 -1426 0
-1411 -1427 0
-1411 -1428 0
-1411 -1429 0
-1411 -1430 0
-1411 -1431 0
-1411 -1432 0
-1411 -1433 0
-1411 -1434 0
-1411 -1435 0
-1411 -1436 0
-1411 -1437 0
-1411 -1438 0
-1411 -1439 0
-1411 -1440 0
-1411 -1441 0
-1411 -1442 0
-1411 -1443 0
-1411 -1444 0
-1411 -1445 0
-1411 -1446 0
-1411 -1447 0
-1411 -1448 0
-1411 -1449 0
-1411 -1450 0
-1411 -1451 0
-1411 -1452 0
-1411 -1453 0
-1411 -1454 0
-1411 -1455 0
-1411 -1456 0
-1411 -1457 0
-1411 -1458 0
-1411 -1459 0
-1411 -1460 0
-1411 -1461 0
-1411 -1462 0
-1411 -1463 0
-1411 -1464 0
-1411 -1465 0
-1411 -1466 0
-1411 -1467 0
-1411 -1468 0
-1411 -1469 0
-1411 -1470 0
-1411 -1471 0
-1411 -1472 0
-1411 -1473 0
-1411 -1474 0
-1411 -1475 0
-1411 -1476 0
-1411 -1477 0
-1411 -1478 0
-1411 -1479 0
-1411 -1480 0
-1411 -1481 0
-1411 -1482 0
-1411 -1483 0
-1411 -1484 0
-1411 -1485 0
-1411 -1486 0
-1411 -1487 0
-1411 -1488 0
-1411 -1489 0
-1411 -1490 0
-1411 -1491 0
-1411 -1492 0
-1411 -1493 0
-1411 -1494 0
-1412 -1413 0
-1412 -1414 0
-1412 -1415 0
-1412 -1416 0
-1412 -1417 0
-1412 -1418 0
-1412 -1419 0
-1412 -1420 0
-1412 -1421 0
-1412 -1422 0
-1412 -1423 0
-1412 -1424 0
-1412 -1425 0
-1412 -1426 0
-1412 -1427 0
-1412 -1428 0
-1412 -1429 0
-1412 -1430 0
-1412 -1431 0
-1412 -1432 0
-1412 -1433 0
-1412 -1434 0
-1412 -1435 0
-1412 -1436 0
-1412 -1437 0
-1412 -1438 0
-1412 -1439 0
-1412 -1440 0
-1412 -1441 0
-1412 -1442 0
-1412 -1443 0
-1412 -1444 0
-1412 -1445 0
-1412 -1446 0
-1412 -1447 0
-1412 -1448 0
-1412 -1449 0
-1412 -1450 0
-1412 -1451 0
-1412 -1452 0
-1412 -1453 0
-1412 -1454 0
-1412 -1455 0
-1412 -1456 0
-1412 -1457 0
-1412 -1458 0
-1412 -1459 0
-1412 -1460 0
-1412 -1461 0
-1412 -1462 0
-1412 -1463 0
-1412 -1464 0
-1412 -1465 0
-1412 -1466 0
-1412 -1467 0
-1412 -1468 0
-1412 -1469 0
-1412 -1470 0
-1412 -1471 0
-1412 -1472 0
-1412 -1473 0
-1412 -1474 0
-1412 -1475 0
-1412 -1476 0
-1412 -1477 0
-1412 -1478 0
-1412 -1479 0
-1412 -1480 0
-1412 -1481 0
-1412 -1482 0
-1412 -1483 0
-1412 -1484 0
-1412 -1485 0
-1412 -1486 0
-1412 -1487 0
-1412 -1488 0
-1412 -1489 0
-1412 -1490 0
-1412 -1491 0
-1412 -1492 0
-1412 -1493 0
-1412 -1494 0
-1413 -1414 0
-1413 -1415 0
-1413 -1416 0
-1413 -1417 0
-1413 -1418 0
-1413 -1419 0
-1413 -1420 0
-1413 -1421 0
-1413 -1422 0
-1413 -1423 0
-1413 -1424 0
-1413 -1425 0
-1413 -1426 0
-1413 -1427 0
-1413 -1428 0
-1413 -1429 0
-1413 -1430 0
-1413 -1431 0
-1413 -1432 0
-1413 -1433 0
-1413 -1434 0
-1413 -1435 0
-1413 -1436 0
-1413 -1437 0
-1413 -1438 0
-1413 -1439 0
-1413 -1440 0
-1413 -1441 0
-1413 -1442 0
-1413 -1443 0
-1413 -1444 0
-1413 -1445 0
-1413 -1446 0
-1413 -1447 0
-1413 -1448 0
-1413 -1449 0
-1413 -1450 0
-1413 -1451 0
-1413 -1452 0
-1413 -1453 0
-1413 -1454 0
-1413 -1455 0
-1413 -1456 0
-1413 -1457 0
-1413 -1458 0
-1413 -1459 0
-1413 -1460 0
-1413 -1461 0
-1413 -1462 0
-1413 -1463 0
-1413 -1464 0
-1413 -1465 0
-1413 -1466 0
-1413 -1467 0
-1413 -1468 0
-1413 -1469 0
-1413 -1470 0
-1413 -1471 0
-1413 -1472 0
-1413 -1473 0
-1413 -1474 0
-1413 -1475 0
-1413 -1476 0
-1413 -1477 0
-1413 -1478 0
-1413 -1479 0
-1413 -1480 0
-1413 -1481 0
-1413 -1482 0
-1413 -1483 0
-1413 -1484 0
-1413 -1485 0
-1413 -1486 0
-1413 -1487 0
-1413 -1488 0
-1413 -1489 0
-1413 -1490 0
-1413 -1491 0
-1413 -1492 0
-1413 -1493 0
-1413 -1494 0
-1414 -1415 0
-1414 -1416 0
-1414 -1417 0
-1414 -1418 0
-1414 -1419 0
-1414 -1420 0
-1414 -1421 0
-1414 -1422 0
-1414 -1423 0
-1414 -1424 0
-1414 -1425 0
-1414 -1426 0
-1414 -1427 0
-1414 -1428 0
-1414 -1429 0
-1414 -1430 0
-1414 -1431 0
-1414 -1432 0
-1414 -1433 0
-1414 -1434 0
-1414 -1435 0
-1414 -1436 0
-1414 -1437 0
-1414 -1438 0
-1414 -1439 0
-1414 -1440 0
-1414 -1441 0
-1414 -1442 0
-1414 -1443 0
-1414 -1444 0
-1414 -1445 0
-1414 -1446 0
-1414 -1447 0
-1414 -1448 0
-1414 -1449 0
-1414 -1450 0
-1414 -1451 0
-1414 -1452 0
-1414 -1453 0
-1414 -1454 0
-1414 -1455 0
-1414 -1456 0
-1414 -1457 0
-1414 -1458 0
-1414 -1459 0
-1414 -1460 0
-1414 -1461 0
-1414 -1462 0
-1414 -1463 0
-1414 -1464 0
-1414 -1465 0
-1414 -1466 0
-1414 -1467 0
-1414 -1468 0
-1414 -1469 0
-1414 -1470 0
-1414 -1471 0
-1414 -1472 0
-1414 -1473 0
-1414 -1474 0
-1414 -1475 0
-1414 -1476 0
-1414 -1477 0
-1414 -1478 0
-1414 -1479 0
-1414 -1480 0
-1414 -1481 0
-1414 -1482 0
-1414 -1483 0
-1414 -1484 0
-1414 -1485 0
-1414 -1486 0
-1414 -1487 0
-1414 -1488 0
-1414 -1489 0
-1414 -1490 0
-1414 -1491 0
-1414 -1492 0
-1414 -1493 0
-1414 -1494 0
-1415 -1416 0
-1415 -1417 0
-1415 -1418 0
-1415 -1419 0
-1415 -1420 0
-1415 -1421 0
-1415 -1422 0
-1415 -1423 0
-1415 -1424 0
-1415 -1425 0
-1415 -1426 0
-1415 -1427 0
-1415 -1428 0
-1415 -1429 0
-1415 -1430 0
-1415 -1431 0
-1415 -1432 0
-1415 -1433 0
-1415 -1434 0
-1415 -1435 0
-1415 -1436 0
-1415 -1437 0
-1415 -1438 0
-1415 -1439 0
-1415 -1440 0
-1415 -1441 0
-1415 -1442 0
-1415 -1443 0
-1415 -1444 0
-1415 -1445 0
-1415 -1446 0
-1415 -1447 0
-1415 -1448 0
-1415 -1449 0
-1415 -1450 0
-1415 -1451 0
-1415 -1452 0
-1415 -1453 0
-1415 -1454 0
-1415 -1455 0
-1415 -1456 0
-1415 -1457 0
-1415 -1458 0
-1415 -1459 0
-1415 -1460 0
-1415 -1461 0
-1415 -1462 0
-1415 -1463 0
-1415 -1464 0
-1415 -1465 0
-1415 -1466 0
-1415 -1467 0
-1415 -1468 0
-1415 -1469 0
-1415 -1470 0
-1415 -1471 0
-1415 -1472 0
-1415 -1473 0
-1415 -1474 0
-1415 -1475 0
-1415 -1476 0
-1415 -1477 0
-1415 -1478 0
-1415 -1479 0
-1415 -1480 0
-1415 -1481 0
-1415 -1482 0
-1415 -1483 0
-1415 -1484 0
-1415 -1485 0
-1415 -1486 0
-1415 -1487 0
-1415 -1488 0
-1415 -1489 0
-1415 -1490 0
-1415 -1491 0
-1415 -1492 0
-1415 -1493 0
-1415 -1494 0
-1416 -1417 0
-1416 -1418 0
-1416 -1419 0
-1416 -1420 0
-1416 -1421 0
-1416 -1422 0
-1416 -1423 0
-1416 -1424 0
-1416 -1425 0
-1416 -1426 0
-1416 -1427 0
-1416 -1428 0
-1416 -1429 0
-1416 -1430 0
-1416 -1431 0
-1416 -1432 0
-1416 -1433 0
-1416 -1434 0
-1416 -1435 0
-1416 -1436 0
-1416 -1437 0
-1416 -1438 0
-1416 -1439 0
-1416 -1440 0
-1416 -1441 0
-1416 -1442 0
-1416 -1443 0
-1416 -1444 0
-1416 -1445 0
-1416 -1446 0
-1416 -1447 0
-1416 -1448 0
-1416 -1449 0
-1416 -1450 0
-1416 -1451 0
-1416 -1452 0
-1416 -1453 0
-1416 -1454 0
-1416 -1455 0
-1416 -1456 0
-1416 -1457 0
-1416 -1458 0
-1416 -1459 0
-1416 -1460 0
-1416 -1461 0
-1416 -1462 0
-1416 -1463 0
-1416 -1464 0
-1416 -1465 0
-1416 -1466 0
-1416 -1467 0
-1416 -1468 0
-1416 -1469 0
-1416 -1470 0
-1416 -1471 0
-1416 -1472 0
-1416 -1473 0
-1416 -1474 0
-1416 -1475 0
-1416 -1476 0
-1416 -1477 0
-1416 -1478 0
-1416 -1479 0
-1416 -1480 0
-1416 -1481 0
-1416 -1482 0
-1416 -1483 0
-1416 -1484 0
-1416 -1485 0
-1416 -1486 0
-1416 -1487 0
-1416 -1488 0
-1416 -1489 0
-1416 -1490 0
-1416 -1491 0
-1416 -1492 0
-1416 -1493 0
-1416 -1494 0
-1417 -1418 0
-1417 -1419 0
-1417 -1420 0
-1417 -1421 0
-1417 -1422 0
-1417 -1423 0
-1417 -1424 0
-1417 -1425 0
-1417 -1426 0
-1417 -1427 0
-1417 -1428 0
-1417 -1429 0
-1417 -1430 0
-1417 -1431 0
-1417 -1432 0
-1417 -1433 0
-1417 -1434 0
-1417 -1435 0
-1417 -1436 0
-1417 -1437 0
-1417 -1438 0
-1417 -1439 0
-1417 -1440 0
-1417 -1441 0
-1417 -1442 0
-1417 -1443 0
-1417 -1444 0
-1417 -1445 0
-1417 -1446 0
-1417 -1447 0
-1417 -1448 0
-1417 -1449 0
-1417 -1450 0
-1417 -1451 0
-1417 -1452 0
-1417 -1453 0
-1417 -1454 0
-1417 -1455 0
-1417 -1456 0
-1417 -1457 0
-1417 -1458 0
-1417 -1459 0
-1417 -1460 0
-1417 -1461 0
-1417 -1462 0
-1417 -1463 0
-1417 -1464 0
-1417 -1465 0
-1417 -1466 0
-1417 -1467 0
-1417 -1468 0
-1417 -1469 0
-1417 -1470 0
-1417 -1471 0
-1417 -1472 0
-1417 -1473 0
-1417 -1474 0
-1417 -1475 0
-1417 -1476 0
-1417 -1477 0
-1417 -1478 0
-1417 -1479 0
-1417 -1480 0
-1417 -1481 0
-1417 -1482 0
-1417 -1483 0
-1417 -1484 0
-1417 -1485 0
-1417 -1486 0
-1417 -1487 0
-1417 -1488 0
-1417 -1489 0
-1417 -1490 0
-1417 -1491 0
-1417 -1492 0
-1417 -1493 0
-1417 -1494 0
-1418 -1419 0
-1418 -1420 0
-1418 -1421 0
-1418 -1422 0
-1418 -1423 0
-1418 -1424 0
-1418 -1425 0
-1418 -1426 0
-1418 -1427 0
-1418 -1428 0
-1418 -1429 0
-1418 -1430 0
-1418 -1431 0
-1418 -1432 0
-1418 -1433 0
-1418 -1434 0
-1418 -1435 0
-1418 -1436 0
-1418 -1437 0
-1418 -1438 0
-1418 -1439 0
-1418 -1440 0
-1418 -1441 0
-1418 -1442 0
-1418 -1443 0
-1418 -1444 0
-1418 -1445 0
-1418 -1446 0
-1418 -1447 0
-1418 -1448 0
-1418 -1449 0
-1418 -1450 0
-1418 -1451 0
-1418 -1452 0
-1418 -1453 0
-1418 -1454 0
-1418 -1455 0
-1418 -1456 0
-1418 -1457 0
-1418 -1458 0
-1418 -1459 0
-1418 -1460 0
-1418 -1461 0
-1418 -1462 0
-1418 -1463 0
-1418 -1464 0
-1418 -1465 0
-1418 -1466 0
-1418 -1467 0
-1418 -1468 0
-1418 -1469 0
-1418 -1470 0
-1418 -1471 0
-1418 -1472 0
-1418 -1473 0
-1418 -1474 0
-1418 -1475 0
-1418 -1476 0
-1418 -1477 0
-1418 -1478 0
-1418 -1479 0
-1418 -1480 0
-1418 -1481 0
-1418 -1482 0
-1418 -1483 0
-1418 -1484 0
-1418 -1485 0
-1418 -1486 0
-1418 -1487 0
-1418 -1488 0
-1418 -1489 0
-1418 -1490 0
-1418 -1491 0
-1418 -1492 0
-1418 -1493 0
-1418 -1494 0
-1419 -1420 0
-1419 -1421 0
-1419 -1422 0
-1419 -1423 0
-1419 -1424 0
-1419 -1425 0
-1419 -1426 0
-1419 -1427 0
-1419 -1428 0
-1419 -1429 0
-1419 -1430 0
-1419 -1431 0
-1419 -1432 0
-1419 -1433 0
-1419 -1434 0
-1419 -1435 0
-1419 -1436 0
-1419 -1437 0
-1419 -1438 0
-1419 -1439 0
-1419 -1440 0
-1419 -1441 0
-1419 -1442 0
-1419 -1443 0
-1419 -1444 0
-1419 -1445 0
-1419 -1446 0
-1419 -1447 0
-1419 -1448 0
-1419 -1449 0
-1419 -1450 0
-1419 -1451 0
-1419 -1452 0
-1419 -1453 0
-1419 -1454 0
-1419 -1455 0
-1419 -1456 0
-1419 -1457 0
-1419 -1458 0
-1419 -1459 0
-1419 -1460 0
-1419 -1461 0
-1419 -1462 0
-1419 -1463 0
-1419 -1464 0
-1419 -1465 0
-1419 -1466 0
-1419 -1467 0
-1419 -1468 0
-1419 -1469 0
-1419 -1470 0
-1419 -1471 0
-1419 -1472 0
-1419 -1473 0
-1419 -1474 0
-1419 -1475 0
-1419 -1476 0
-1419 -1477 0
-1419 -1478 0
-1419 -1479 0
-1419 -1480 0
-1419 -1481 0
-1419 -1482 0
-1419 -1483 0
-1419 -1484 0
-1419 -1485 0
-1419 -1486 0
-1419 -1487 0
-1419 -1488 0
-1419 -1489 0
-1419 -1490 0
-1419 -1491 0
-1419 -1492 0
-1419 -1493 0
-1419 -1494 0
-1420 -1421 0
-1420 -1422 0
-1420 -1423 0
-1420 -1424 0
-1420 -1425 0
-1420 -1426 0
-1420 -1427 0
-1420 -1428 0
-1420 -1429 0
-1420 -1430 0
-1420 -1431 0
-1420 -1432 0
-1420 -1433 0
-1420 -1434 0
-1420 -1435 0
-1420 -1436 0
-1420 -1437 0
-1420 -1438 0
-1420 -1439 0
-1420 -1440 0
-1420 -1441 0
-1420 -1442 0
-1420 -1443 0
-1420 -1444 0
-1420 -1445 0
-1420 -1446 0
-1420 -1447 0
-1420 -1448 0
-1420 -1449 0
-1420 -1450 0
-1420 -1451 0
-1420 -1452 0
-1420 -1453 0
-1420 -1454 0
-1420 -1455 0
-1420 -1456 0
-1420 -1457 0
-1420 -1458 0
-1420 -1459 0
-1420 -1460 0
-1420 -1461 0
-1420 -1462 0
-1420 -1463 0
-1420 -1464 0
-1420 -1465 0
-1420 -1466 0
-1420 -1467 0
-1420 -1468 0
-1420 -1469 0
-1420 -1470 0
-1420 -1471 0
-1420 -1472 0
-1420 -1473 0
-1420 -1474 0
-1420 -1475 0
-1420 -1476 0
-1420 -1477 0
-1420 -1478 0
-1420 -1479 0
-1420 -1480 0
-1420 -1481 0
-1420 -1482 0
-1420 -1483 0
-1420 -1484 0
-1420 -1485 0
-1420 -1486 0
-1420 -1487 0
-1420 -1488 0
-1420 -1489 0
-1420 -1490 0
-1420 -1491 0
-1420 -1492 0
-1420 -1493 0
-1420 -1494 0
-1421 -1422 0
-1421 -1423 0
-1421 -1424 0
-1421 -1425 0
-1421 -1426 0
-1421 -1427 0
-1421 -1428 0
-1421 -1429 0
-1421 -1430 0
-1421 -1431 0
-1421 -1432 0
-1421 -1433 0
-1421 -1434 0
-1421 -1435 0
-1421 -1436 0
-1421 -1437 0
-1421 -1438 0
-1421 -1439 0
-1421 -1440 0
-1421 -1441 0
-1421 -1442 0
-1421 -1443 0
-1421 -1444 0
-1421 -1445 0
-1421 -1446 0
-1421 -1447 0
-1421 -1448 0
-1421 -1449 0
-1421 -1450 0
-1421 -1451 0
-1421 -1452 0
-1421 -1453 0
-1421 -1454 0
-1421 -1455 0
-1421 -1456 0
-1421 -1457 0
-1421 -1458 0
-1421 -1459 0
-1421 -1460 0
-1421 -1461 0
-1421 -1462 0
-1421 -1463 0
-1421 -1464 0
-1421 -1465 0
-1421 -1466 0
-1421 -1467 0
-1421 -1468 0
-1421 -1469 0
-1421 -1470 0
-1421 -1471 0
-1421 -1472 0
-1421 -1473 0
-1421 -1474 0
-1421 -1475 0
-1421 -1476 0
-1421 -1477 0
-1421 -1478 0
-1421 -1479 0
-1421 -1480 0
-1421 -1481 0
-1421 -1482 0
-1421 -1483 0
-1421 -1484 0
-1421 -1485 0
-1421 -1486 0
-1421 -1487 0
-1421 -1488 0
-1421 -1489 0
-1421 -1490 0
-1421 -1491 0
-1421 -1492 0
-1421 -1493 0
-1421 -1494 0
-1422 -1423 0
-1422 -1424 0
-1422 -1425 0
-1422 -1426 0
-1422 -1427 0
-1422 -1428 0
-1422 -1429 0
-1422 -1430 0
-1422 -1431 0
-1422 -1432 0
-1422 -1433 0
-1422 -1434 0
-1422 -1435 0
-1422 -1436 0
-1422 -1437 0
-1422 -1438 0
-1422 -1439 0
-1422 -1440 0
-1422 -1441 0
-1422 -1442 0
-1422 -1443 0
-1422 -1444 0
-1422 -1445 0
-1422 -1446 0
-1422 -1447 0
-1422 -1448 0
-1422 -1449 0
-1422 -1450 0
-1422 -1451 0
-1422 -1452 0
-1422 -1453 0
-1422 -1454 0
-1422 -1455 0
-1422 -1456 0
-1422 -1457 0
-1422 -1458 0
-1422 -1459 0
-1422 -1460 0
-1422 -1461 0
-1422 -1462 0
-1422 -1463 0
-1422 -1464 0
-1422 -1465 0
-1422 -1466 0
-1422 -1467 0
-1422 -1468 0
-1422 -1469 0
-1422 -1470 0
-1422 -1471 0
-1422 -1472 0
-1422 -1473 0
-1422 -1474 0
-1422 -1475 0
-1422 -1476 0
-1422 -1477 0
-1422 -1478 0
-1422 -1479 0
-1422 -1480 0
-1422 -1481 0
-1422 -1482 0
-1422 -1483 0
-1422 -1484 0
-1422 -1485 0
-1422 -1486 0
-1422 -1487 0
-1422 -1488 0
-1422 -1489 0
-1422 -1490 0
-1422 -1491 0
-1422 -1492 0
-1422 -1493 0
-1422 -1494 0
-1423 -1424 0
-1423 -1425 0
-1423 -1426 0
-1423 -1427 0
-1423 -1428 0
-1423 -1429 0
-1423 -1430 0
-1423 -1431 0
-1423 -1432 0
-1423 -1433 0
-1423 -1434 0
-1423 -1435 0
-1423 -1436 0
-1423 -1437 0
-1423 -1438 0
-1423 -1439 0
-1423 -1440 0
-1423 -1441 0
-1423 -1442 0
-1423 -1443 0
-1423 -1444 0
-1423 -1445 0
-1423 -1446 0
-1423 -1447 0
-1423 -1448 0
-1423 -1449 0
-1423 -1450 0
-1423 -1451 0
-1423 -1452 0
-1423 -1453 0
-1423 -1454 0
-1423 -1455 0
-1423 -1456 0
-1423 -1457 0
-1423 -1458 0
-1423 -1459 0
-1423 -1460 0
-1423 -1461 0
-1423 -1462 0
-1423 -1463 0
-1423 -1464 0
-1423 -1465 0
-1423 -1466 0
-1423 -1467 0
-1423 -1468 0
-1423 -1469 0
-1423 -1470 0
-1423 -1471 0
-1423 -1472 0
-1423 -1473 0
-1423 -1474 0
-1423 -1475 0
-1423 -1476 0
-1423 -1477 0
-1423 -1478 0
-1423 -1479 0
-1423 -1480 0
-1423 -1481 0
-1423 -1482 0
-1423 -1483 0
-1423 -1484 0
-1423 -1485 0
-1423 -1486 0
-1423 -1487 0
-1423 -1488 0
-1423 -1489 0
-1423 -1490 0
-1423 -1491 0
-1423 -1492 0
-1423 -1493 0
-1423 -1494 0
-1424 -1425 0
-1424 -1426 0
-1424 -1427 0
-1424 -1428 0
-1424 -1429 0
-1424 -1430 0
-1424 -1431 0
-1424 -1432 0
-1424 -1433 0
-1424 -1434 0
-1424 -1435 0
-1424 -1436 0
-1424 -1437 0
-1424 -1438 0
-1424 -1439 0
-1424 -1440 0
-1424 -1441 0
-1424 -1442 0
-1424 -1443 0
-1424 -1444 0
-1424 -1445 0
-1424 -1446 0
-1424 -1447 0
-1424 -1448 0
-1424 -1449 0
-1424 -1450 0
-1424 -1451 0
-1424 -1452 0
-1424 -1453 0
-1424 -1454 0
-1424 -1455 0
-1424 -1456 0
-1424 -1457 0
-1424 -1458 0
-1424 -1459 0
-1424 -1460 0
-1424 -1461 0
-1424 -1462 0
-1424 -1463 0
-1424 -1464 0
-1424 -1465 0
-1424 -1466 0
-1424 -1467 0
-1424 -1468 0
-1424 -1469 0
-1424 -1470 0
-1424 -1471 0
-1424 -1472 0
-1424 -1473 0
-1424 -1474 0
-1424 -1475 0
-1424 -1476 0
-1424 -1477 0
-1424 -1478 0
-1424 -1479 0
-1424 -1480 0
-1424 -1481 0
-1424 -1482 0
-1424 -1483 0
-1424 -1484 0
-1424 -1485 0
-1424 -1486 0
-1424 -1487 0
-1424 -1488 0
-1424 -1489 0
-1424 -1490 0
-1424 -1491 0
-1424 -1492 0
-1424 -1493 0
-1424 -1494 0
-1425 -1426 0
-1425 -1427 0
-1425 -1428 0
-1425 -1429 0
-1425 -1430 0
-1425 -1431 0
-1425 -1432 0
-1425 -1433 0
-1425 -1434 0
-1425 -1435 0
-1425 -1436 0
-1425 -1437 0
-1425 -1438 0
-1425 -1439 0
-1425 -1440 0
-1425 -1441 0
-1425 -1442 0
-1425 -1443 0
-1425 -1444 0
-1425 -1445 0
-1425 -1446 0
-1425 -1447 0
-1425 -1448 0
-1425 -1449 0
-1425 -1450 0
-1425 -1451 0
-1425 -1452 0
-1425 -1453 0
-1425 -1454 0
-1425 -1455 0
-1425 -1456 0
-1425 -1457 0
-1425 -1458 0
-1425 -1459 0
-1425 -1460 0
-1425 -1461 0
-1425 -1462 0
-1425 -1463 0
-1425 -1464 0
-1425 -1465 0
-1425 -1466 0
-1425 -1467 0
-1425 -1468 0
-1425 -1469 0
-1425 -1470 0
-1425 -1471 0
-1425 -1472 0
-1425 -1473 0
-1425 -1474 0
-1425 -1475 0
-1425 -1476 0
-1425 -1477 0
-1425 -1478 0
-1425 -1479 0
-1425 -1480 0
-1425 -1481 0
-1425 -1482 0
-1425 -1483 0
-1425 -1484 0
-1425 -1485 0
-1425 -1486 0
-1425 -1487 0
-1425 -1488 0
-1425 -1489 0
-1425 -1490 0
-1425 -1491 0
-1425 -1492 0
-1425 -1493 0
-1425 -1494 0
-1426 -1427 0
-1426 -1428 0
-1426 -1429 0
-1426 -1430 0
-1426 -1431 0
-1426 -1432 0
-1426 -1433 0
-1426 -1434 0
-1426 -1435 0
-1426 -1436 0
-1426 -1437 0
-1426 -1438 0
-1426 -1439 0
-1426 -1440 0
-1426 -1441 0
-1426 -1442 0
-1426 -1443 0
-1426 -1444 0
-1426 -1445 0
-1426 -1446 0
-1426 -1447 0
-1426 -1448 0
-1426 -1449 0
-1426 -1450 0
-1426 -1451 0
-1426 -1452 0
-1426 -1453 0
-1426 -1454 0
-1426 -1455 0
-1426 -1456 0
-1426 -1457 0
-1426 -1458 0
-1426 -1459 0
-1426 -1460 0
-1426 -1461 0
-1426 -1462 0
-1426 -1463 0
-1426 -1464 0
-1426 -1465 0
-1426 -1466 0
-1426 -1467 0
-1426 -1468 0
-1426 -1469 0
-1426 -1470 0
-1426 -1471 0
-1426 -1472 0
-1426 -1473 0
-1426 -1474 0
-1426 -1475 0
-1426 -1476 0
-1426 -1477 0
-1426 -1478 0
-1426 -1479 0
-1426 -1480 0
-1426 -1481 0
-1426 -1482 0
-1426 -1483 0
-1426 -1484 0
-1426 -1485 0
-1426 -1486 0
-1426 -1487 0
-1426 -1488 0
-1426 -1489 0
-1426 -1490 0
-1426 -1491 0
-1426 -1492 0
-1426 -1493 0
-1426 -1494 0
-1427 -1428 0
-1427 -1429 0
-1427 -1430 0
-1427 -1431 0
-1427 -1432 0
-1427 -1433 0
-1427 -1434 0
-1427 -1435 0
-1427 -1436 0
-1427 -1437 0
-1427 -1438 0
-1427 -1439 0
-1427 -1440 0
-1427 -1441 0
-1427 -1442 0
-1427 -1443 0
-1427 -1444 0
-1427 -1445 0
-1427 -1446 0
-1427 -1447 0
-1427 -1448 0
-1427 -1449 0
-1427 -1450 0
-1427 -1451 0
-1427 -1452 0
-1427 -1453 0
-1427 -1454 0
-1427 -1455 0
-1427 -1456 0
-1427 -1457 0
-1427 -1458 0
-1427 -1459 0
-1427 -1460 0
-1427 -1461 0
-1427 -1462 0
-1427 -1463 0
-1427 -1464 0
-1427 -1465 0
-1427 -1466 0
-1427 -1467 0
-1427 -1468 0
-1427 -1469 0
-1427 -1470 0
-1427 -1471 0
-1427 -1472 0
-1427 -1473 0
-1427 -1474 0
-1427 -1475 0
-1427 -1476 0
-1427 -1477 0
-1427 -1478 0
-1427 -1479 0
-1427 -1480 0
-1427 -1481 0
-1427 -1482 0
-1427 -1483 0
-1427 -1484 0
-1427 -1485 0
-1427 -1486 0
-1427 -1487 0
-1427 -1488 0
-1427 -1489 0
-1427 -1490 0
-1427 -1491 0
-1427 -1492 0
-1427 -1493 0
-1427 -1494 0
-1428 -1429 0
-1428 -1430 0
-1428 -1431 0
-1428 -1432 0
-1428 -1433 0
-1428 -1434 0
-1428 -1435 0
-1428 -1436 0
-1428 -1437 0
-1428 -1438 0
-1428 -1439 0
-1428 -1440 0
-1428 -1441 0
-1428 -1442 0
-1428 -1443 0
-1428 -1444 0
-1428 -1445 0
-1428 -1446 0
-1428 -1447 0
-1428 -1448 0
-1428 -1449 0
-1428 -1450 0
-1428 -1451 0
-1428 -1452 0
-1428 -1453 0
-1428 -1454 0
-1428 -1455 0
-1428 -1456 0
-1428 -1457 0
-1428 -1458 0
-1428 -1459 0
-1428 -1460 0
-1428 -1461 0
-1428 -1462 0
-1428 -1463 0
-1428 -1464 0
-1428 -1465 0
-1428 -1466 0
-1428 -1467 0
-1428 -1468 0
-1428 -1469 0
-1428 -1470 0
-1428 -1471 0
-1428 -1472 0
-1428 -1473 0
-1428 -1474 0
-1428 -1475 0
-1428 -1476 0
-1428 -1477 0
-1428 -1478 0
-1428 -1479 0
-1428 -1480 0
-1428 -1481 0
-1428 -1482 0
-1428 -1483 0
-1428 -1484 0
-1428 -1485 0
-1428 -1486 0
-1428 -1487 0
-1428 -1488 0
-1428 -1489 0
-1428 -1490 0
-1428 -1491 0
-1428 -1492 0
-1428 -1493 0
-1428 -1494 0
-1429 -1430 0
-1429 -1431 0
-1429 -1432 0
-1429 -1433 0
-1429 -1434 0
-1429 -1435 0
-1429 -1436 0
-1429 -1437 0
-1429 -1438 0
-1429 -1439 0
-1429 -1440 0
-1429 -1441 0
-1429 -1442 0
-1429 -1443 0
-1429 -1444 0
-1429 -1445 0
-1429 -1446 0
-1429 -1447 0
-1429 -1448 0
-1429 -1449 0
-1429 -1450 0
-1429 -1451 0
-1429 -1452 0
-1429 -1453 0
-1429 -1454 0
-1429 -1455 0
-1429 -1456 0
-1429 -1457 0
-1429 -1458 0
-1429 -1459 0
-1429 -1460 0
-1429 -1461 0
-1429 -1462 0
-1429 -1463 0
-1429 -1464 0
-1429 -1465 0
-1429 -1466 0
-1429 -1467 0
-1429 -1468 0
-1429 -1469 0
-1429 -1470 0
-1429 -1471 0
-1429 -1472 0
-1429 -1473 0
-1429 -1474 0
-1429 -1475 0
-1429 -1476 0
-1429 -1477 0
-1429 -1478 0
-1429 -1479 0
-1429 -1480 0
-1429 -1481 0
-1429 -1482 0
-1429 -1483 0
-1429 -1484 0
-1429 -1485 0
-1429 -1486 0
-1429 -1487 0
-1429 -1488 0
-1429 -1489 0
-1429 -1490 0
-1429 -1491 0
-1429 -1492 0
-1429 -1493 0
-1429 -1494 0
-1430 -1431 0
-1430 -1432 0
-1430 -1433 0
-1430 -1434 0
-1430 -1435 0
-1430 -1436 0
-1430 -1437 0
-1430 -1438 0
-1430 -1439 0
-1430 -1440 0
-1430 -1441 0
-1430 -1442 0
-1430 -1443 0
-1430 -1444 0
-1430 -1445 0
-1430 -1446 0
-1430 -1447 0
-1430 -1448 0
-1430 -1449 0
-1430 -1450 0
-1430 -1451 0
-1430 -1452 0
-1430 -1453 0
-1430 -1454 0
-1430 -1455 0
-1430 -1456 0
-1430 -1457 0
-1430 -1458 0
-1430 -1459 0
-1430 -1460 0
-1430 -1461 0
-1430 -1462 0
-1430 -1463 0
-1430 -1464 0
-1430 -1465 0
-1430 -1466 0
-1430 -1467 0
-1430 -1468 0
-1430 -1469 0
-1430 -1470 0
-1430 -1471 0
-1430 -1472 0
-1430 -1473 0
-1430 -1474 0
-1430 -1475 0
-1430 -1476 0
-1430 -1477 0
-1430 -1478 0
-1430 -1479 0
-1430 -1480 0
-1430 -1481 0
-1430 -1482 0
-1430 -1483 0
-1430 -1484 0
-1430 -1485 0
-1430 -1486 0
-1430 -1487 0
-1430 -1488 0
-1430 -1489 0
-1430 -1490 0
-1430 -1491 0
-1430 -1492 0
-1430 -1493 0
-1430 -1494 0
-1431 -1432 0
-1431 -1433 0
-1431 -1434 0
-1431 -1435 0
-1431 -1436 0
-1431 -1437 0
-1431 -1438 0
-1431 -1439 0
-1431 -1440 0
-1431 -1441 0
-1431 -1442 0
-1431 -1443 0
-1431 -1444 0
-1431 -1445 0
-1431 -1446 0
-1431 -1447 0
-1431 -1448 0
-1431 -1449 0
-1431 -1450 0
-1431 -1451 0
-1431 -1452 0
-1431 -1453 0
-1431 -1454 0
-1431 -1455 0
-1431 -1456 0
-1431 -1457 0
-1431 -1458 0
-1431 -1459 0
-1431 -1460 0
-1431 -1461 0
-1431 -1462 0
-1431 -1463 0
-1431 -1464 0
-1431 -1465 0
-1431 -1466 0
-1431 -1467 0
-1431 -1468 0
-1431 -1469 0
-1431 -1470 0
-1431 -1471 0
-1431 -1472 0
-1431 -1473 0
-1431 -1474 0
-1431 -1475 0
-1431 -1476 0
-1431 -1477 0
-1431 -1478 0
-1431 -1479 0
-1431 -1480 0
-1431 -1481 0
-1431 -1482 0
-1431 -1483 0
-1431 -1484 0
-1431 -1485 0
-1431 -1486 0
-1431 -1487 0
-1431 -1488 0
-1431 -1489 0
-1431 -1490 0
-1431 -1491 0
-1431 -1492 0
-1431 -1493 0
-1431 -1494 0
-1432 -1433 0
-1432 -1434 0
-1432 -1435 0
-1432 -1436 0
-1432 -1437 0
-1432 -1438 0
-1432 -1439 0
-1432 -1440 0
-1432 -1441 0
-1432 -1442 0
-1432 -1443 0
-1432 -1444 0
-1432 -1445 0
-1432 -1446 0
-1432 -1447 0
-1432 -1448 0
-1432 -1449 0
-1432 -1450 0
-1432 -1451 0
-1432 -1452 0
-1432 -1453 0
-1432 -1454 0
-1432 -1455 0
-1432 -1456 0
-1432 -1457 0
-1432 -1458 0
-1432 -1459 0
-1432 -1460 0
-1432 -1461 0
-1432 -1462 0
-1432 -1463 0
-1432 -1464 0
-1432 -1465 0
-1432 -1466 0
-1432 -1467 0
-1432 -1468 0
-1432 -1469 0
-1432 -1470 0
-1432 -1471 0
-1432 -1472 0
-1432 -1473 0
-1432 -1474 0
-1432 -1475 0
-1432 -1476 0
-1432 -1477 0
-1432 -1478 0
-1432 -1479 0
-1432 -1480 0
-1432 -1481 0
-1432 -1482 0
-1432 -1483 0
-1432 -1484 0
-1432 -1485 0
-1432 -1486 0
-1432 -1487 0
-1432 -1488 0
-1432 -1489 0
-1432 -1490 0
-1432 -1491 0
-1432 -1492 0
-1432 -1493 0
-1432 -1494 0
-1433 -1434 0
-1433 -1435 0
-1433 -1436 0
-1433 -1437 0
-1433 -1438 0
-1433 -1439 0
-1433 -1440 0
-1433 -1441 0
-1433 -1442 0
-1433 -1443 0
-1433 -1444 0
-1433 -1445 0
-1433 -1446 0
-1433 -1447 0
-1433 -1448 0
-1433 -1449 0
-1433 -1450 0
-1433 -1451 0
-1433 -1452 0
-1433 -1453 0
-1433 -1454 0
-1433 -1455 0
-1433 -1456 0
-1433 -1457 0
-1433 -1458 0
-1433 -1459 0
-1433 -1460 0
-1433 -1461 0
-1433 -1462 0
-1433 -1463 0
-1433 -1464 0
-1433 -1465 0
-1433 -1466 0
-1433 -1467 0
-1433 -1468 0
-1433 -1469 0
-1433 -1470 0
-1433 -1471 0
-1433 -1472 0
-1433 -1473 0
-1433 -1474 0
-1433 -1475 0
-1433 -1476 0
-1433 -1477 0
-1433 -1478 0
-1433 -1479 0
-1433 -1480 0
-1433 -1481 0
-1433 -1482 0
-1433 -1483 0
-1433 -1484 0
-1433 -1485 0
-1433 -1486 0
-1433 -1487 0
-1433 -1488 0
-1433 -1489 0
-1433 -1490 0
-1433 -1491 0
-1433 -1492 0
-1433 -1493 0
-1433 -1494 0
-1434 -1435 0
-1434 -1436 0
-1434 -1437 0
-1434 -1438 0
-1434 -1439 0
-1434 -1440 0
-1434 -1441 0
-1434 -1442 0
-1434 -1443 0
-1434 -1444 0
-1434 -1445 0
-1434 -1446 0
-1434 -1447 0
-1434 -1448 0
-1434 -1449 0
-1434 -1450 0
-1434 -1451 0
-1434 -1452 0
-1434 -1453 0
-1434 -1454 0
-1434 -1455 0
-1434 -1456 0
-1434 -1457 0
-1434 -1458 0
-1434 -1459 0
-1434 -1460 0
-1434 -1461 0
-1434 -1462 0
-1434 -1463 0
-1434 -1464 0
-1434 -1465 0
-1434 -1466 0
-1434 -1467 0
-1434 -1468 0
-1434 -1469 0
-1434 -1470 0
-1434 -1471 0
-1434 -1472 0
-1434 -1473 0
-1434 -1474 0
-1434 -1475 0
-1434 -1476 0
-1434 -1477 0
-1434 -1478 0
-1434 -1479 0
-1434 -1480 0
-1434 -1481 0
-1434 -1482 0
-1434 -1483 0
-1434 -1484 0
-1434 -1485 0
-1434 -1486 0
-1434 -1487 0
-1434 -1488 0
-1434 -1489 0
-1434 -1490 0
-1434 -1491 0
-1434 -1492 0
-1434 -1493 0
-1434 -1494 0
-1435 -1436 0
-1435 -1437 0
-1435 -1438 0
-1435 -1439 0
-1435 -1440 0
-1435 -1441 0
-1435 -1442 0
-1435 -1443 0
-1435 -1444 0
-1435 -1445 0
-1435 -1446 0
-1435 -1447 0
-1435 -1448 0
-1435 -1449 0
-1435 -1450 0
-1435 -1451 0
-1435 -1452 0
-1435 -1453 0
-1435 -1454 0
-1435 -1455 0
-1435 -1456 0
-1435 -1457 0
-1435 -1458 0
-1435 -1459 0
-1435 -1460 0
-1435 -1461 0
-1435 -1462 0
-1435 -1463 0
-1435 -1464 0
-1435 -1465 0
-1435 -1466 0
-1435 -1467 0
-1435 -1468 0
-1435 -1469 0
-1435 -1470 0
-1435 -1471 0
-1435 -1472 0
-1435 -1473 0
-1435 -1474 0
-1435 -1475 0
-1435 -1476 0
-1435 -1477 0
-1435 -1478 0
-1435 -1479 0
-1435 -1480 0
-1435 -1481 0
-1435 -1482 0
-1435 -1483 0
-1435 -1484 0
-1435 -1485 0
-1435 -1486 0
-1435 -1487 0
-1435 -1488 0
-1435 -1489 0
-1435 -1490 0
-1435 -1491 0
-1435 -1492 0
-1435 -1493 0
-1435 -1494 0
-1436 -1437 0
-1436 -1438 0
-1436 -1439 0
-1436 -1440 0
-1436 -1441 0
-1436 -1442 0
-1436 -1443 0
-1436 -1444 0
-1436 -1445 0
-1436 -1446 0
-1436 -1447 0
-1436 -1448 0
-1436 -1449 0
-1436 -1450 0
-1436 -1451 0
-1436 -1452 0
-1436 -1453 0
-1436 -1454 0
-1436 -1455 0
-1436 -1456 0
-1436 -1457 0
-1436 -1458 0
-1436 -1459 0
-1436 -1460 0
-1436 -1461 0
-1436 -1462 0
-1436 -1463 0
-1436 -1464 0
-1436 -1465 0
-1436 -1466 0
-1436 -1467 0
-1436 -1468 0
-1436 -1469 0
-1436 -1470 0
-1436 -1471 0
-1436 -1472 0
-1436 -1473 0
-1436 -1474 0
-1436 -1475 0
-1436 -1476 0
-1436 -1477 0
-1436 -1478 0
-1436 -1479 0
-1436 -1480 0
-1436 -1481 0
-1436 -1482 0
-1436 -1483 0
-1436 -1484 0
-1436 -1485 0
-1436 -1486 0
-1436 -1487 0
-1436 -1488 0
-1436 -1489 0
-1436 -1490 0
-1436 -1491 0
-1436 -1492 0
-1436 -1493 0
-1436 -1494 0
-1437 -1438 0
-1437 -1439 0
-1437 -1440 0
-1437 -1441 0
-1437 -1442 0
-1437 -1443 0
-1437 -1444 0
-1437 -1445 0
-1437 -1446 0
-1437 -1447 0
-1437 -1448 0
-1437 -1449 0
-1437 -1450 0
-1437 -1451 0
-1437 -1452 0
-1437 -1453 0
-1437 -1454 0
-1437 -1455 0
-1437 -1456 0
-1437 -1457 0
-1437 -1458 0
-1437 -1459 0
-1437 -1460 0
-1437 -1461 0
-1437 -1462 0
-1437 -1463 0
-1437 -1464 0
-1437 -1465 0
-1437 -1466 0
-1437 -1467 0
-1437 -1468 0
-1437 -1469 0
-1437 -1470 0
-1437 -1471 0
-1437 -1472 0
-1437 -1473 0
-1437 -1474 0
-1437 -1475 0
-1437 -1476 0
-1437 -1477 0
-1437 -1478 0
-1437 -1479 0
-1437 -1480 0
-1437 -1481 0
-1437 -1482 0
-1437 -1483 0
-1437 -1484 0
-1437 -1485 0
-1437 -1486 0
-1437 -1487 0
-1437 -1488 0
-1437 -1489 0
-1437 -1490 0
-1437 -1491 0
-1437 -1492 0
-1437 -1493 0
-1437 -1494 0
-1438 -1439 0
-1438 -1440 0
-1438 -1441 0
-1438 -1442 0
-1438 -1443 0
-1438 -1444 0
-1438 -1445 0
-1438 -1446 0
-1438 -1447 0
-1438 -1448 0
-1438 -1449 0
-1438 -1450 0
-1438 -1451 0
-1438 -1452 0
-1438 -1453 0
-1438 -1454 0
-1438 -1455 0
-1438 -1456 0
-1438 -1457 0
-1438 -1458 0
-1438 -1459 0
-1438 -1460 0
-1438 -1461 0
-1438 -1462 0
-1438 -1463 0
-1438 -1464 0
-1438 -1465 0
-1438 -1466 0
-1438 -1467 0
-1438 -1468 0
-1438 -1469 0
-1438 -1470 0
-1438 -1471 0
-1438 -1472 0
-1438 -1473 0
-1438 -1474 0
-1438 -1475 0
-1438 -1476 0
-1438 -1477 0
-1438 -1478 0
-1438 -1479 0
-1438 -1480 0
-1438 -1481 0
-1438 -1482 0
-1438 -1483 0
-1438 -1484 0
-1438 -1485 0
-1438 -1486 0
-1438 -1487 0
-1438 -1488 0
-1438 -1489 0
-1438 -1490 0
-1438 -1491 0
-1438 -1492 0
-1438 -1493 0
-1438 -1494 0
-1439 -1440 0
-1439 -1441 0
-1439 -1442 0
-1439 -1443 0
-1439 -1444 0
-1439 -1445 0
-1439 -1446 0
-1439 -1447 0
-1439 -1448 0
-1439 -1449 0
-1439 -1450 0
-1439 -1451 0
-1439 -1452 0
-1439 -1453 0
-1439 -1454 0
-1439 -1455 0
-1439 -1456 0
-1439 -1457 0
-1439 -1458 0
-1439 -1459 0
-1439 -1460 0
-1439 -1461 0
-1439 -1462 0
-1439 -1463 0
-1439 -1464 0
-1439 -1465 0
-1439 -1466 0
-1439 -1467 0
-1439 -1468 0
-1439 -1469 0
-1439 -1470 0
-1439 -1471 0
-1439 -1472 0
-1439 -1473 0
-1439 -1474 0
-1439 -1475 0
-1439 -1476 0
-1439 -1477 0
-1439 -1478 0
-1439 -1479 0
-1439 -1480 0
-1439 -1481 0
-1439 -1482 0
-1439 -1483 0
-1439 -1484 0
-1439 -1485 0
-1439 -1486 0
-1439 -1487 0
-1439 -1488 0
-1439 -1489 0
-1439 -1490 0
-1439 -1491 0
-1439 -1492 0
-1439 -1493 0
-1439 -1494 0
-1440 -1441 0
-1440 -1442 0
-1440 -1443 0
-1440 -1444 0
-1440 -1445 0
-1440 -1446 0
-1440 -1447 0
-1440 -1448 0
-1440 -1449 0
-1440 -1450 0
-1440 -1451 0
-1440 -1452 0
-1440 -1453 0
-1440 -1454 0
-1440 -1455 0
-1440 -1456 0
-1440 -1457 0
-1440 -1458 0
-1440 -1459 0
-1440 -1460 0
-1440 -1461 0
-1440 -1462 0
-1440 -1463 0
-1440 -1464 0
-1440 -1465 0
-1440 -1466 0
-1440 -1467 0
-1440 -1468 0
-1440 -1469 0
-1440 -1470 0
-1440 -1471 0
-1440 -1472 0
-1440 -1473 0
-1440 -1474 0
-1440 -1475 0
-1440 -1476 0
-1440 -1477 0
-1440 -1478 0
-1440 -1479 0
-1440 -1480 0
-1440 -1481 0
-1440 -1482 0
-1440 -1483 0
-1440 -1484 0
-1440 -1485 0
-1440 -1486 0
-1440 -1487 0
-1440 -1488 0
-1440 -1489 0
-1440 -1490 0
-1440 -1491 0
-1440 -1492 0
-1440 -1493 0
-1440 -1494 0
-1441 -1442 0
-1441 -1443 0
-1441 -1444 0
-1441 -1445 0
-1441 -1446 0
-1441 -1447 0
-1441 -1448 0
-1441 -1449 0
-1441 -1450 0
-1441 -1451 0
-1441 -1452 0
-1441 -1453 0
-1441 -1454 0
-1441 -1455 0
-1441 -1456 0
-1441 -1457 0
-1441 -1458 0
-1441 -1459 0
-1441 -1460 0
-1441 -1461 0
-1441 -1462 0
-1441 -1463 0
-1441 -1464 0
-1441 -1465 0
-1441 -1466 0
-1441 -1467 0
-1441 -1468 0
-1441 -1469 0
-1441 -1470 0
-1441 -1471 0
-1441 -1472 0
-1441 -1473 0
-1441 -1474 0
-1441 -1475 0
-1441 -1476 0
-1441 -1477 0
-1441 -1478 0
-1441 -1479 0
-1441 -1480 0
-1441 -1481 0
-1441 -1482 0
-1441 -1483 0
-1441 -1484 0
-1441 -1485 0
-1441 -1486 0
-1441 -1487 0
-1441 -1488 0
-1441 -1489 0
-1441 -1490 0
-1441 -1491 0
-1441 -1492 0
-1441 -1493 0
-1441 -1494 0
-1442 -1443 0
-1442 -1444 0
-1442 -1445 0
-1442 -1446 0
-1442 -1447 0
-1442 -1448 0
-1442 -1449 0
-1442 -1450 0
-1442 -1451 0
-1442 -1452 0
-1442 -1453 0
-1442 -1454 0
-1442 -1455 0
-1442 -1456 0
-1442 -1457 0
-1442 -1458 0
-1442 -1459 0
-1442 -1460 0
-1442 -1461 0
-1442 -1462 0
-1442 -1463 0
-1442 -1464 0
-1442 -1465 0
-1442 -1466 0
-1442 -1467 0
-1442 -1468 0
-1442 -1469 0
-1442 -1470 0
-1442 -1471 0
-1442 -1472 0
-1442 -1473 0
-1442 -1474 0
-1442 -1475 0
-1442 -1476 0
-1442 -1477 0
-1442 -1478 0
-1442 -1479 0
-1442 -1480 0
-1442 -1481 0
-1442 -1482 0
-1442 -1483 0
-1442 -1484 0
-1442 -1485 0
-1442 -1486 0
-1442 -1487 0
-1442 -1488 0
-1442 -1489 0
-1442 -1490 0
-1442 -1491 0
-1442 -1492 0
-1442 -1493 0
-1442 -1494 0
-1443 -1444 0
-1443 -1445 0
-1443 -1446 0
-1443 -1447 0
-1443 -1448 0
-1443 -1449 0
-1443 -1450 0
-1443 -1451 0
-1443 -1452 0
-1443 -1453 0
-1443 -1454 0
-1443 -1455 0
-1443 -1456 0
-1443 -1457 0
-1443 -1458 0
-1443 -1459 0
-1443 -1460 0
-1443 -1461 0
-1443 -1462 0
-1443 -1463 0
-1443 -1464 0
-1443 -1465 0
-1443 -1466 0
-1443 -1467 0
-1443 -1468 0
-1443 -1469 0
-1443 -1470 0
-1443 -1471 0
-1443 -1472 0
-1443 -1473 0
-1443 -1474 0
-1443 -1475 0
-1443 -1476 0
-1443 -1477 0
-1443 -1478 0
-1443 -1479 0
-1443 -1480 0
-1443 -1481 0
-1443 -1482 0
-1443 -1483 0
-1443 -1484 0
-1443 -1485 0
-1443 -1486 0
-1443 -1487 0
-1443 -1488 0
-1443 -1489 0
-1443 -1490 0
-1443 -1491 0
-1443 -1492 0
-1443 -1493 0
-1443 -1494 0
-1444 -1445 0
-1444 -1446 0
-1444 -1447 0
-1444 -1448 0
-1444 -1449 0
-1444 -1450 0
-1444 -1451 0
-1444 -1452 0
-1444 -1453 0
-1444 -1454 0
-1444 -1455 0
-1444 -1456 0
-1444 -1457 0
-1444 -1458 0
-1444 -1459 0
-1444 -1460 0
-1444 -1461 0
-1444 -1462 0
-1444 -1463 0
-1444 -1464 0
-1444 -1465 0
-1444 -1466 0
-1444 -1467 0
-1444 -1468 0
-1444 -1469 0
-1444 -1470 0
-1444 -1471 0
-1444 -1472 0
-1444 -1473 0
-1444 -1474 0
-1444 -1475 0
-1444 -1476 0
-1444 -1477 0
-1444 -1478 0
-1444 -1479 0
-1444 -1480 0
-1444 -1481 0
-1444 -1482 0
-1444 -1483 0
-1444 -1484 0
-1444 -1485 0
-1444 -1486 0
-1444 -1487 0
-1444 -1488 0
-1444 -1489 0
-1444 -1490 0
-1444 -1491 0
-1444 -1492 0
-1444 -1493 0
-1444 -1494 0
-1445 -1446 0
-1445 -1447 0
-1445 -1448 0
-1445 -1449 0
-1445 -1450 0
-1445 -1451 0
-1445 -1452 0
-1445 -1453 0
-1445 -1454 0
-1445 -1455 0
-1445 -1456 0
-1445 -1457 0
-1445 -1458 0
-1445 -1459 0
-1445 -1460 0
-1445 -1461 0
-1445 -1462 0
-1445 -1463 0
-1445 -1464 0
-1445 -1465 0
-1445 -1466 0
-1445 -1467 0
-1445 -1468 0
-1445 -1469 0
-1445 -1470 0
-1445 -1471 0
-1445 -1472 0
-1445 -1473 0
-1445 -1474 0
-1445 -1475 0
-1445 -1476 0
-1445 -1477 0
-1445 -1478 0
-1445 -1479 0
-1445 -1480 0
-1445 -1481 0
-1445 -1482 0
-1445 -1483 0
-1445 -1484 0
-1445 -1485 0
-1445 -1486 0
-1445 -1487 0
-1445 -1488 0
-1445 -1489 0
-1445 -1490 0
-1445 -1491 0
-1445 -1492 0
-1445 -1493 0
-1445 -1494 0
-1446 -1447 0
-1446 -1448 0
-1446 -1449 0
-1446 -1450 0
-1446 -1451 0
-1446 -1452 0
-1446 -1453 0
-1446 -1454 0
-1446 -1455 0
-1446 -1456 0
-1446 -1457 0
-1446 -1458 0
-1446 -1459 0
-1446 -1460 0
-1446 -1461 0
-1446 -1462 0
-1446 -1463 0
-1446 -1464 0
-1446 -1465 0
-1446 -1466 0
-1446 -1467 0
-1446 -1468 0
-1446 -1469 0
-1446 -1470 0
-1446 -1471 0
-1446 -1472 0
-1446 -1473 0
-1446 -1474 0
-1446 -1475 0
-1446 -1476 0
-1446 -1477 0
-1446 -1478 0
-1446 -1479 0
-1446 -1480 0
-1446 -1481 0
-1446 -1482 0
-1446 -1483 0
-1446 -1484 0
-1446 -1485 0
-1446 -1486 0
-1446 -1487 0
-1446 -1488 0
-1446 -1489 0
-1446 -1490 0
-1446 -1491 0
-1446 -1492 0
-1446 -1493 0
-1446 -1494 0
-1447 -1448 0
-1447 -1449 0
-1447 -1450 0
-1447 -1451 0
-1447 -1452 0
-1447 -1453 0
-1447 -1454 0
-1447 -1455 0
-1447 -1456 0
-1447 -1457 0
-1447 -1458 0
-1447 -1459 0
-1447 -1460 0
-1447 -1461 0
-1447 -1462 0
-1447 -1463 0
-1447 -1464 0
-1447 -1465 0
-1447 -1466 0
-1447 -1467 0
-1447 -1468 0
-1447 -1469 0
-1447 -1470 0
-1447 -1471 0
-1447 -1472 0
-1447 -1473 0
-1447 -1474 0
-1447 -1475 0
-1447 -1476 0
-1447 -1477 0
-1447 -1478 0
-1447 -1479 0
-1447 -1480 0
-1447 -1481 0
-1447 -1482 0
-1447 -1483 0
-1447 -1484 0
-1447 -1485 0
-1447 -1486 0
-1447 -1487 0
-1447 -1488 0
-1447 -1489 0
-1447 -1490 0
-1447 -1491 0
-1447 -1492 0
-1447 -1493 0
-1447 -1494 0
-1448 -1449 0
-1448 -1450 0
-1448 -1451 0
-1448 -1452 0
-1448 -1453 0
-1448 -1454 0
-1448 -1455 0
-1448 -1456 0
-1448 -1457 0
-1448 -1458 0
-1448 -1459 0
-1448 -1460 0
-1448 -1461 0
-1448 -1462 0
-1448 -1463 0
-1448 -1464 0
-1448 -1465 0
-1448 -1466 0
-1448 -1467 0
-1448 -1468 0
-1448 -1469 0
-1448 -1470 0
-1448 -1471 0
-1448 -1472 0
-1448 -1473 0
-1448 -1474 0
-1448 -1475 0
-1448 -1476 0
-1448 -1477 0
-1448 -1478 0
-1448 -1479 0
-1448 -1480 0
-1448 -1481 0
-1448 -1482 0
-1448 -1483 0
-1448 -1484 0
-1448 -1485 0
-1448 -1486 0
-1448 -1487 0
-1448 -1488 0
-1448 -1489 0
-1448 -1490 0
-1448 -1491 0
-1448 -1492 0
-1448 -1493 0
-1448 -1494 0
-1449 -1450 0
-1449 -1451 0
-1449 -1452 0
-1449 -1453 0
-1449 -1454 0
-1449 -1455 0
-1449 -1456 0
-1449 -1457 0
-1449 -1458 0
-1449 -1459 0
-1449 -1460 0
-1449 -1461 0
-1449 -1462 0
-1449 -1463 0
-1449 -1464 0
-1449 -1465 0
-1449 -1466 0
-1449 -1467 0
-1449 -1468 0
-1449 -1469 0
-1449 -1470 0
-1449 -1471 0
-1449 -1472 0
-1449 -1473 0
-1449 -1474 0
-1449 -1475 0
-1449 -1476 0
-1449 -1477 0
-1449 -1478 0
-1449 -1479 0
-1449 -1480 0
-1449 -1481 0
-1449 -1482 0
-1449 -1483 0
-1449 -1484 0
-1449 -1485 0
-1449 -1486 0
-1449 -1487 0
-1449 -1488 0
-1449 -1489 0
-1449 -1490 0
-1449 -1491 0
-1449 -1492 0
-1449 -1493 0
-1449 -1494 0
-1450 -1451 0
-1450 -1452 0
-1450 -1453 0
-1450 -1454 0
-1450 -1455 0
-1450 -1456 0
-1450 -1457 0
-1450 -1458 0
-1450 -1459 0
-1450 -1460 0
-1450 -1461 0
-1450 -1462 0
-1450 -1463 0
-1450 -1464 0
-1450 -1465 0
-1450 -1466 0
-1450 -1467 0
-1450 -1468 0
-1450 -1469 0
-1450 -1470 0
-1450 -1471 0
-1450 -1472 0
-1450 -1473 0
-1450 -1474 0
-1450 -1475 0
-1450 -1476 0
-1450 -1477 0
-1450 -1478 0
-1450 -1479 0
-1450 -1480 0
-1450 -1481 0
-1450 -1482 0
-1450 -1483 0
-1450 -1484 0
-1450 -1485 0
-1450 -1486 0
-1450 -1487 0
-1450 -1488 0
-1450 -1489 0
-1450 -1490 0
-1450 -1491 0
-1450 -1492 0
-1450 -1493 0
-1450 -1494 0
-1451 -1452 0
-1451 -1453 0
-1451 -1454 0
-1451 -1455 0
-1451 -1456 0
-1451 -1457 0
-1451 -1458 0
-1451 -1459 0
-1451 -1460 0
-1451 -1461 0
-1451 -1462 0
-1451 -1463 0
-1451 -1464 0
-1451 -1465 0
-1451 -1466 0
-1451 -1467 0
-1451 -1468 0
-1451 -1469 0
-1451 -1470 0
-1451 -1471 0
-1451 -1472 0
-1451 -1473 0
-1451 -1474 0
-1451 -1475 0
-1451 -1476 0
-1451 -1477 0
-1451 -1478 0
-1451 -1479 0
-1451 -1480 0
-1451 -1481 0
-1451 -1482 0
-1451 -1483 0
-1451 -1484 0
-1451 -1485 0
-1451 -1486 0
-1451 -1487 0
-1451 -1488 0
-1451 -1489 0
-1451 -1490 0
-1451 -1491 0
-1451 -1492 0
-1451 -1493 0
-1451 -1494 0
-1452 -1453 0
-1452 -1454 0
-1452 -1455 0
-1452 -1456 0
-1452 -1457 0
-1452 -1458 0
-1452 -1459 0
-1452 -1460 0
-1452 -1461 0
-1452 -1462 0
-1452 -1463 0
-1452 -1464 0
-1452 -1465 0
-1452 -1466 0
-1452 -1467 0
-1452 -1468 0
-1452 -1469 0
-1452 -1470 0
-1452 -1471 0
-1452 -1472 0
-1452 -1473 0
-1452 -1474 0
-1452 -1475 0
-1452 -1476 0
-1452 -1477 0
-1452 -1478 0
-1452 -1479 0
-1452 -1480 0
-1452 -1481 0
-1452 -1482 0
-1452 -1483 0
-1452 -1484 0
-1452 -1485 0
-1452 -1486 0
-1452 -1487 0
-1452 -1488 0
-1452 -1489 0
-1452 -1490 0
-1452 -1491 0
-1452 -1492 0
-1452 -1493 0
-1452 -1494 0
-1453 -1454 0
-1453 -1455 0
-1453 -1456 0
-1453 -1457 0
-1453 -1458 0
-1453 -1459 0
-1453 -1460 0
-1453 -1461 0
-1453 -1462 0
-1453 -1463 0
-1453 -1464 0
-1453 -1465 0
-1453 -1466 0
-1453 -1467 0
-1453 -1468 0
-1453 -1469 0
-1453 -1470 0
-1453 -1471 0
-1453 -1472 0
-1453 -1473 0
-1453 -1474 0
-1453 -1475 0
-1453 -1476 0
-1453 -1477 0
-1453 -1478 0
-1453 -1479 0
-1453 -1480 0
-1453 -1481 0
-1453 -1482 0
-1453 -1483 0
-1453 -1484 0
-1453 -1485 0
-1453 -1486 0
-1453 -1487 0
-1453 -1488 0
-1453 -1489 0
-1453 -1490 0
-1453 -1491 0
-1453 -1492 0
-1453 -1493 0
-1453 -1494 0
-1454 -1455 0
-1454 -1456 0
-1454 -1457 0
-1454 -1458 0
-1454 -1459 0
-1454 -1460 0
-1454 -1461 0
-1454 -1462 0
-1454 -1463 0
-1454 -1464 0
-1454 -1465 0
-1454 -1466 0
-1454 -1467 0
-1454 -1468 0
-1454 -1469 0
-1454 -1470 0
-1454 -1471 0
-1454 -1472 0
-1454 -1473 0
-1454 -1474 0
-1454 -1475 0
-1454 -1476 0
-1454 -1477 0
-1454 -1478 0
-1454 -1479 0
-1454 -1480 0
-1454 -1481 0
-1454 -1482 0
-1454 -1483 0
-1454 -1484 0
-1454 -1485 0
-1454 -1486 0
-1454 -1487 0
-1454 -1488 0
-1454 -1489 0
-1454 -1490 0
-1454 -1491 0
-1454 -1492 0
-1454 -1493 0
-1454 -1494 0
-1455 -1456 0
-1455 -1457 0
-1455 -1458 0
-1455 -1459 0
-1455 -1460 0
-1455 -1461 0
-1455 -1462 0
-1455 -1463 0
-1455 -1464 0
-1455 -1465 0
-1455 -1466 0
-1455 -1467 0
-1455 -1468 0
-1455 -1469 0
-1455 -1470 0
-1455 -1471 0
-1455 -1472 0
-1455 -1473 0
-1455 -1474 0
-1455 -1475 0
-1455 -1476 0
-1455 -1477 0
-1455 -1478 0
-1455 -1479 0
-1455 -1480 0
-1455 -1481 0
-1455 -1482 0
-1455 -1483 0
-1455 -1484 0
-1455 -1485 0
-1455 -1486 0
-1455 -1487 0
-1455 -1488 0
-1455 -1489 0
-1455 -1490 0
-1455 -1491 0
-1455 -1492 0
-1455 -1493 0
-1455 -1494 0
-1456 -1457 0
-1456 -1458 0
-1456 -1459 0
-1456 -1460 0
-1456 -1461 0
-1456 -1462 0
-1456 -1463 0
-1456 -1464 0
-1456 -1465 0
-1456 -1466 0
-1456 -1467 0
-1456 -1468 0
-1456 -1469 0
-1456 -1470 0
-1456 -1471 0
-1456 -1472 0
-1456 -1473 0
-1456 -1474 0
-1456 -1475 0
-1456 -1476 0
-1456 -1477 0
-1456 -1478 0
-1456 -1479 0
-1456 -1480 0
-1456 -1481 0
-1456 -1482 0
-1456 -1483 0
-1456 -1484 0
-1456 -1485 0
-1456 -1486 0
-1456 -1487 0
-1456 -1488 0
-1456 -1489 0
-1456 -1490 0
-1456 -1491 0
-1456 -1492 0
-1456 -1493 0
-1456 -1494 0
-1457 -1458 0
-1457 -1459 0
-1457 -1460 0
-1457 -1461 0
-1457 -1462 0
-1457 -1463 0
-1457 -1464 0
-1457 -1465 0
-1457 -1466 0
-1457 -1467 0
-1457 -1468 0
-1457 -1469 0
-1457 -1470 0
-1457 -1471 0
-1457 -1472 0
-1457 -1473 0
-1457 -1474 0
-1457 -1475 0
-1457 -1476 0
-1457 -1477 0
-1457 -1478 0
-1457 -1479 0
-1457 -1480 0
-1457 -1481 0
-1457 -1482 0
-1457 -1483 0
-1457 -1484 0
-1457 -1485 0
-1457 -1486 0
-1457 -1487 0
-1457 -1488 0
-1457 -1489 0
-1457 -1490 0
-1457 -1491 0
-1457 -1492 0
-1457 -1493 0
-1457 -1494 0
-1458 -1459 0
-1458 -1460 0
-1458 -1461 0
-1458 -1462 0
-1458 -1463 0
-1458 -1464 0
-1458 -1465 0
-1458 -1466 0
-1458 -1467 0
-1458 -1468 0
-1458 -1469 0
-1458 -1470 0
-1458 -1471 0
-1458 -1472 0
-1458 -1473 0
-1458 -1474 0
-1458 -1475 0
-1458 -1476 0
-1458 -1477 0
-1458 -1478 0
-1458 -1479 0
-1458 -1480 0
-1458 -1481 0
-1458 -1482 0
-1458 -1483 0
-1458 -1484 0
-1458 -1485 0
-1458 -1486 0
-1458 -1487 0
-1458 -1488 0
-1458 -1489 0
-1458 -1490 0
-1458 -1491 0
-1458 -1492 0
-1458 -1493 0
-1458 -1494 0
-1459 -1460 0
-1459 -1461 0
-1459 -1462 0
-1459 -1463 0
-1459 -1464 0
-1459 -1465 0
-1459 -1466 0
-1459 -1467 0
-1459 -1468 0
-1459 -1469 0
-1459 -1470 0
-1459 -1471 0
-1459 -1472 0
-1459 -1473 0
-1459 -1474 0
-1459 -1475 0
-1459 -1476 0
-1459 -1477 0
-1459 -1478 0
-1459 -1479 0
-1459 -1480 0
-1459 -1481 0
-1459 -1482 0
-1459 -1483 0
-1459 -1484 0
-1459 -1485 0
-1459 -1486 0
-1459 -1487 0
-1459 -1488 0
-1459 -1489 0
-1459 -1490 0
-1459 -1491 0
-1459 -1492 0
-1459 -1493 0
-1459 -1494 0
-1460 -1461 0
-1460 -1462 0
-1460 -1463 0
-1460 -1464 0
-1460 -1465 0
-1460 -1466 0
-1460 -1467 0
-1460 -1468 0
-1460 -1469 0
-1460 -1470 0
-1460 -1471 0
-1460 -1472 0
-1460 -1473 0
-1460 -1474 0
-1460 -1475 0
-1460 -1476 0
-1460 -1477 0
-1460 -1478 0
-1460 -1479 0
-1460 -1480 0
-1460 -1481 0
-1460 -1482 0
-1460 -1483 0
-1460 -1484 0
-1460 -1485 0
-1460 -1486 0
-1460 -1487 0
-1460 -1488 0
-1460 -1489 0
-1460 -1490 0
-1460 -1491 0
-1460 -1492 0
-1460 -1493 0
-1460 -1494 0
-1461 -1462 0
-1461 -1463 0
-1461 -1464 0
-1461 -1465 0
-1461 -1466 0
-1461 -1467 0
-1461 -1468 0
-1461 -1469 0
-1461 -1470 0
-1461 -1471 0
-1461 -1472 0
-1461 -1473 0
-1461 -1474 0
-1461 -1475 0
-1461 -1476 0
-1461 -1477 0
-1461 -1478 0
-1461 -1479 0
-1461 -1480 0
-1461 -1481 0
-1461 -1482 0
-1461 -1483 0
-1461 -1484 0
-1461 -1485 0
-1461 -1486 0
-1461 -1487 0
-1461 -1488 0
-1461 -1489 0
-1461 -1490 0
-1461 -1491 0
-1461 -1492 0
-1461 -1493 0
-1461 -1494 0
-1462 -1463 0
-1462 -1464 0
-1462 -1465 0
-1462 -1466 0
-1462 -1467 0
-1462 -1468 0
-1462 -1469 0
-1462 -1470 0
-1462 -1471 0
-1462 -1472 0
-1462 -1473 0
-1462 -1474 0
-1462 -1475 0
-1462 -1476 0
-1462 -1477 0
-1462 -1478 0
-1462 -1479 0
-1462 -1480 0
-1462 -1481 0
-1462 -1482 0
-1462 -1483 0
-1462 -1484 0
-1462 -1485 0
-1462 -1486 0
-1462 -1487 0
-1462 -1488 0
-1462 -1489 0
-1462 -1490 0
-1462 -1491 0
-1462 -1492 0
-1462 -1493 0
-1462 -1494 0
-1463 -1464 0
-1463 -1465 0
-1463 -1466 0
-1463 -1467 0
-1463 -1468 0
-1463 -1469 0
-1463 -1470 0
-1463 -1471 0
-1463 -1472 0
-1463 -1473 0
-1463 -1474 0
-1463 -1475 0
-1463 -1476 0
-1463 -1477 0
-1463 -1478 0
-1463 -1479 0
-1463 -1480 0
-1463 -1481 0
-1463 -1482 0
-1463 -1483 0
-1463 -1484 0
-1463 -1485 0
-1463 -1486 0
-1463 -1487 0
-1463 -1488 0
-1463 -1489 0
-1463 -1490 0
-1463 -1491 0
-1463 -1492 0
-1463 -1493 0
-1463 -1494 0
-1464 -1465 0
-1464 -1466 0
-1464 -1467 0
-1464 -1468 0
-1464 -1469 0
-1464 -1470 0
-1464 -1471 0
-1464 -1472 0
-1464 -1473 0
-1464 -1474 0
-1464 -1475 0
-1464 -1476 0
-1464 -1477 0
-1464 -1478 0
-1464 -1479 0
-1464 -1480 0
-1464 -1481 0
-1464 -1482 0
-1464 -1483 0
-1464 -1484 0
-1464 -1485 0
-1464 -1486 0
-1464 -1487 0
-1464 -1488 0
-1464 -1489 0
-1464 -1490 0
-1464 -1491 0
-1464 -1492 0
-1464 -1493 0
-1464 -1494 0
-1465 -1466 0
-1465 -1467 0
-1465 -1468 0
-1465 -1469 0
-1465 -1470 0
-1465 -1471 0
-1465 -1472 0
-1465 -1473 0
-1465 -1474 0
-1465 -1475 0
-1465 -1476 0
-1465 -1477 0
-1465 -1478 0
-1465 -1479 0
-1465 -1480 0
-1465 -1481 0
-1465 -1482 0
-1465 -1483 0
-1465 -1484 0
-1465 -1485 0
-1465 -1486 0
-1465 -1487 0
-1465 -1488 0
-1465 -1489 0
-1465 -1490 0
-1465 -1491 0
-1465 -1492 0
-1465 -1493 0
-1465 -1494 0
-1466 -1467 0
-1466 -1468 0
-1466 -1469 0
-1466 -1470 0
-1466 -1471 0
-1466 -1472 0
-1466 -1473 0
-1466 -1474 0
-1466 -1475 0
-1466 -1476 0
-1466 -1477 0
-1466 -1478 0
-1466 -1479 0
-1466 -1480 0
-1466 -1481 0
-1466 -1482 0
-1466 -1483 0
-1466 -1484 0
-1466 -1485 0
-1466 -1486 0
-1466 -1487 0
-1466 -1488 0
-1466 -1489 0
-1466 -1490 0
-1466 -1491 0
-1466 -1492 0
-1466 -1493 0
-1466 -1494 0
-1467 -1468 0
-1467 -1469 0
-1467 -1470 0
-1467 -1471 0
-1467 -1472 0
-1467 -1473 0
-1467 -1474 0
-1467 -1475 0
-1467 -1476 0
-1467 -1477 0
-1467 -1478 0
-1467 -1479 0
-1467 -1480 0
-1467 -1481 0
-1467 -1482 0
-1467 -1483 0
-1467 -1484 0
-1467 -1485 0
-1467 -1486 0
-1467 -1487 0
-1467 -1488 0
-1467 -1489 0
-1467 -1490 0
-1467 -1491 0
-1467 -1492 0
-1467 -1493 0
-1467 -1494 0
-1468 -1469 0
-1468 -1470 0
-1468 -1471 0
-1468 -1472 0
-1468 -1473 0
-1468 -1474 0
-1468 -1475 0
-1468 -1476 0
-1468 -1477 0
-1468 -1478 0
-1468 -1479 0
-1468 -1480 0
-1468 -1481 0
-1468 -1482 0
-1468 -1483 0
-1468 -1484 0
-1468 -1485 0
-1468 -1486 0
-1468 -1487 0
-1468 -1488 0
-1468 -1489 0
-1468 -1490 0
-1468 -1491 0
-1468 -1492 0
-1468 -1493 0
-1468 -1494 0
-1469 -1470 0
-1469 -1471 0
-1469 -1472 0
-1469 -1473 0
-1469 -1474 0
-1469 -1475 0
-1469 -1476 0
-1469 -1477 0
-1469 -1478 0
-1469 -1479 0
-1469 -1480 0
-1469 -1481 0
-1469 -1482 0
-1469 -1483 0
-1469 -1484 0
-1469 -1485 0
-1469 -1486 0
-1469 -1487 0
-1469 -1488 0
-1469 -1489 0
-1469 -1490 0
-1469 -1491 0
-1469 -1492 0
-1469 -1493 0
-1469 -1494 0
-1470 -1471 0
-1470 -1472 0
-1470 -1473 0
-1470 -1474 0
-1470 -1475 0
-1470 -1476 0
-1470 -1477 0
-1470 -1478 0
-1470 -1479 0
-1470 -1480 0
-1470 -1481 0
-1470 -1482 0
-1470 -1483 0
-1470 -1484 0
-1470 -1485 0
-1470 -1486 0
-1470 -1487 0
-1470 -1488 0
-1470 -1489 0
-1470 -1490 0
-1470 -1491 0
-1470 -1492 0
-1470 -1493 0
-1470 -1494 0
-1471 -1472 0
-1471 -1473 0
-1471 -1474 0
-1471 -1475 0
-1471 -1476 0
-1471 -1477 0
-1471 -1478 0
-1471 -1479 0
-1471 -1480 0
-1471 -1481 0
-1471 -1482 0
-1471 -1483 0
-1471 -1484 0
-1471 -1485 0
-1471 -1486 0
-1471 -1487 0
-1471 -1488 0
-1471 -1489 0
-1471 -1490 0
-1471 -1491 0
-1471 -1492 0
-1471 -1493 0
-1471 -1494 0
-1472 -1473 0
-1472 -1474 0
-1472 -1475 0
-1472 -1476 0
-1472 -1477 0
-1472 -1478 0
-1472 -1479 0
-1472 -1480 0
-1472 -1481 0
-1472 -1482 0
-1472 -1483 0
-1472 -1484 0
-1472 -1485 0
-1472 -1486 0
-1472 -1487 0
-1472 -1488 0
-1472 -1489 0
-1472 -1490 0
-1472 -1491 0
-1472 -1492 0
-1472 -1493 0
-1472 -1494 0
-1473 -1474 0
-1473 -1475 0
-1473 -1476 0
-1473 -1477 0
-1473 -1478 0
-1473 -1479 0
-1473 -1480 0
-1473 -1481 0
-1473 -1482 0
-1473 -1483 0
-1473 -1484 0
-1473 -1485 0
-1473 -1486 0
-1473 -1487 0
-1473 -1488 0
-1473 -1489 0
-1473 -1490 0
-1473 -1491 0
-1473 -1492 0
-1473 -1493 0
-1473 -1494 0
-1474 -1475 0
-1474 -1476 0
-1474 -1477 0
-1474 -1478 0
-1474 -1479 0
-1474 -1480 0
-1474 -1481 0
-1474 -1482 0
-1474 -1483 0
-1474 -1484 0
-1474 -1485 0
-1474 -1486 0
-1474 -1487 0
-1474 -1488 0
-1474 -1489 0
-1474 -1490 0
-1474 -1491 0
-1474 -1492 0
-1474 -1493 0
-1474 -1494 0
-1475 -1476 0
-1475 -1477 0
-1475 -1478 0
-1475 -1479 0
-1475 -1480 0
-1475 -1481 0
-1475 -1482 0
-1475 -1483 0
-1475 -1484 0
-1475 -1485 0
-1475 -1486 0
-1475 -1487 0
-1475 -1488 0
-1475 -1489 0
-1475 -1490 0
-1475 -1491 0
-1475 -1492 0
-1475 -1493 0
-1475 -1494 0
-1476 -1477 0
-1476 -1478 0
-1476 -1479 0
-1476 -1480 0
-1476 -1481 0
-1476 -1482 0
-1476 -1483 0
-1476 -1484 0
-1476 -1485 0
-1476 -1486 0
-1476 -1487 0
-1476 -1488 0
-1476 -1489 0
-1476 -1490 0
-1476 -1491 0
-1476 -1492 0
-1476 -1493 0
-1476 -1494 0
-1477 -1478 0
-1477 -1479 0
-1477 -1480 0
-1477 -1481 0
-1477 -1482 0
-1477 -1483 0
-1477 -1484 0
-1477 -1485 0
-1477 -1486 0
-1477 -1487 0
-1477 -1488 0
-1477 -1489 0
-1477 -1490 0
-1477 -1491 0
-1477 -1492 0
-1477 -1493 0
-1477 -1494 0
-1478 -1479 0
-1478 -1480 0
-1478 -1481 0
-1478 -1482 0
-1478 -1483 0
-1478 -1484 0
-1478 -1485 0
-1478 -1486 0
-1478 -1487 0
-1478 -1488 0
-1478 -1489 0
-1478 -1490 0
-1478 -1491 0
-1478 -1492 0
-1478 -1493 0
-1478 -1494 0
-1479 -1480 0
-1479 -1481 0
-1479 -1482 0
-1479 -1483 0
-1479 -1484 0
-1479 -1485 0
-1479 -1486 0
-1479 -1487 0
-1479 -1488 0
-1479 -1489 0
-1479 -1490 0
-1479 -1491 0
-1479 -1492 0
-1479 -1493 0
-1479 -1494 0
-1480 -1481 0
-1480 -1482 0
-1480 -1483 0
-1480 -1484 0
-1480 -1485 0
-1480 -1486 0
-1480 -1487 0
-1480 -1488 0
-1480 -1489 0
-1480 -1490 0
-1480 -1491 0
-1480 -1492 0
-1480 -1493 0
-1480 -1494 0
-1481 -1482 0
-1481 -1483 0
-1481 -1484 0
-1481 -1485 0
-1481 -1486 0
-1481 -1487 0
-1481 -1488 0
-1481 -1489 0
-1481 -1490 0
-1481 -1491 0
-1481 -1492 0
-1481 -1493 0
-1481 -1494 0
-1482 -1483 0
-1482 -1484 0
-1482 -1485 0
-1482 -1486 0
-1482 -1487 0
-1482 -1488 0
-1482 -1489 0
-1482 -1490 0
-1482 -1491 0
-1482 -1492 0
-1482 -1493 0
-1482 -1494 0
-1483 -1484 0
-1483 -1485 0
-1483 -1486 0
-1483 -1487 0
-1483 -1488 0
-1483 -1489 0
-1483 -1490 0
-1483 -1491 0
-1483 -1492 0
-1483 -1493 0
-1483 -1494 0
-1484 -1485 0
-1484 -1486 0
-1484 -1487 0
-1484 -1488 0
-1484 -1489 0
-1484 -1490 0
-1484 -1491 0
-1484 -1492 0
-1484 -1493 0
-1484 -1494 0
-1485 -1486 0
-1485 -1487 0
-1485 -1488 0
-1485 -1489 0
-1485 -1490 0
-1485 -1491 0
-1485 -1492 0
-1485 -1493 0
-1485 -1494 0
-1486 -1487 0
-1486 -1488 0
-1486 -1489 0
-1486 -1490 0
-1486 -1491 0
-1486 -1492 0
-1486 -1493 0
-1486 -1494 0
-1487 -1488 0
-1487 -1489 0
-1487 -1490 0
-1487 -1491 0
-1487 -1492 0
-1487 -1493 0
-1487 -1494 0
-1488 -1489 0
-1488 -1490 0
-1488 -1491 0
-1488 -1492 0
-1488 -1493 0
-1488 -1494 0
-1489 -1490 0
-1489 -1491 0
-1489 -1492 0
-1489 -1493 0
-1489 -1494 0
-1490 -1491 0
-1490 -1492 0
-1490 -1493 0
-1490 -1494 0
-1491 -1492 0
-1491 -1493 0
-1491 -1494 0
-1492 -1493 0
-1492 -1494 0
-1493 -1494 0
1495 1496 1497 1498 1499 1500 1501 1502 1503 1504 1505 1506 1507 1508 1509 1510 1511 1512 1513 1514 1515 1516 1517 1518 1519 1520 1521 1522 1523 1524 1525 1526 1527 1528 1529 1530 1531 1532 1533 1534 1535 1536 1537 1538 1539 1540 1541 1542 1543 1544 1545 1546 1547 1548 1549 1550 1551 1552 1553 1554 1555 1556 1557 1558 1559 1560 1561 1562 1563 1564 1565 1566 1567 1568 1569 1570 1571 1572 1573 1574 1575 1576 1577 1578 0
-1495 -1496 0
-1495 -1497 0
-1495 -1498 0
-1495 -1499 0
-1495 -1500 0
-1495 -1501 0
-1495 -1502 0
-1495 -1503 0
-1495 -1504 0
-1495 -1505 0
-1495 -1506 0
-1495 -1507 0
-1495 -1508 0
-1495 -1509 0
-1495 -1510 0
-1495 -1511 0
-1495 -1512 0
-1495 -1513 0
-1495 -1514 0
-1495 -1515 0
-1495 -1516 0
-1495 -1517 0
-1495 -1518 0
-1495 -1519 0
-1495 -1520 0
-1495 -1521 0
-1495 -1522 0
-1495 -1523 0
-1495 -1524 0
-1495 -1525 0
-1495 -1526 0
-1495 -1527 0
-1495 -1528 0
-1495 -1529 0
-1495 -1530 0
-1495 -1531 0
-1495 -1532 0
-1495 -1533 0
-1495 -1534 0
-1495 -1535 0
-1495 -1536 0
-1495 -1537 0
-1495 -1538 0
-1495 -1539 0
-1495 -1540 0
-1495 -1541 0
-1495 -1542 0
-1495 -1543 0
-1495 -1544 0
-1495 -1545 0
-1495 -1546 0
-1495 -1547 0
-1495 -1548 0
-1495 -1549 0
-1495 -1550 0
-1495 -1551 0
-1495 -1552 0
-1495 -1553 0
-1495 -1554 0
-1495 -1555 0
-1495 -1556 0
-1495 -1557 0
-1495 -1558 0
-1495 -1559 0
-1495 -1560 0
-1495 -1561 0
-1495 -1562 0
-1495 -1563 0
-1495 -1564 0
-1495 -1565 0
-1495 -1566 0
-1495 -1567 0
-1495 -1568 0
-1495 -1569 0
-1495 -1570 0
-1495 -1571 0
-1495 -1572 0
-1495 -1573 0
-1495 -1574 0
-1495 -1575 0
-1495 -1576 0
-1495 -1577 0
-1495 -1578 0
-1496 -1497 0
-1496 -1498 0
-1496 -1499 0
-1496 -1500 0
-1496 -1501 0
-1496 -1502 0
-1496 -1503 0
-1496 -1504 0
-1496 -1505 0
-1496 -1506 0
-1496 -1507 0
-1496 -1508 0
-1496 -1509 0
-1496 -1510 0
-1496 -1511 0
-1496 -1512 0
-1496 -1513 0
-1496 -1514 0
-1496 -1515 0
-1496 -1516 0
-1496 -1517 0
-1496 -1518 0
-1496 -1519 0
-1496 -1520 0
-1496 -1521 0
-1496 -1522 0
-1496 -1523 0
-1496 -1524 0
-1496 -1525 0
-1496 -1526 0
-1496 -1527 0
-1496 -1528 0
-1496 -1529 0
-1496 -1530 0
-1496 -1531 0
-1496 -1532 0
-1496 -1533 0
-1496 -1534 0
-1496 -1535 0
-1496 -1536 0
-1496 -1537 0
-1496 -1538 0
-1496 -1539 0
-1496 -1540 0
-1496 -1541 0
-1496 -1542 0
-1496 -1543 0
-1496 -1544 0
-1496 -1545 0
-1496 -1546 0
-1496 -1547 0
-1496 -1548 0
-1496 -1549 0
-1496 -1550 0
-1496 -1551 0
-1496 -1552 0
-1496 -1553 0
-1496 -1554 0
-1496 -1555 0
-1496 -1556 0
-1496 -1557 0
-1496 -1558 0
-1496 -1559 0
-1496 -1560 0
-1496 -1561 0
-1496 -1562 0
-1496 -1563 0
-1496 -1564 0
-1496 -1565 0
-1496 -1566 0
-1496 -1567 0
-1496 -1568 0
-1496 -1569 0
-1496 -1570 0
-1496 -1571 0
-1496 -1572 0
-1496 -1573 0
-1496 -1574 0
-1496 -1575 0
-1496 -1576 0
-1496 -1577 0
-1496 -1578 0
-1497 -1498 0
-1497 -1499 0
-1497 -1500 0
-1497 -1501 0
-1497 -1502 0
-1497 -1503 0
-1497 -1504 0
-1497 -1505 0
-1497 -1506 0
-1497 -1507 0
-1497 -1508 0
-1497 -1509 0
-1497 -1510 0
-1497 -1511 0
-1497 -1512 0
-1497 -1513 0
-1497 -1514 0
-1497 -1515 0
-1497 -1516 0
-1497 -1517 0
-1497 -1518 0
-1497 -1519 0
-1497 -1520 0
-1497 -1521 0
-1497 -1522 0
-1497 -1523 0
-1497 -1524 0
-1497 -1525 0
-1497 -1526 0
-1497 -1527 0
-1497 -1528 0
-1497 -1529 0
-1497 -1530 0
-1497 -1531 0
-1497 -1532 0
-1497 -1533 0
-1497 -1534 0
-1497 -1535 0
-1497 -1536 0
-1497 -1537 0
-1497 -1538 0
-1497 -1539 0
-1497 -1540 0
-1497 -1541 0
-1497 -1542 0
-1497 -1543 0
-1497 -1544 0
-1497 -1545 0
-1497 -1546 0
-1497 -1547 0
-1497 -1548 0
-1497 -1549 0
-1497 -1550 0
-1497 -1551 0
-1497 -1552 0
-1497 -1553 0
-1497 -1554 0
-1497 -1555 0
-1497 -1556 0
-1497 -1557 0
-1497 -1558 0
-1497 -1559 0
-1497 -1560 0
-1497 -1561 0
-1497 -1562 0
-1497 -1563 0
-1497 -1564 0
-1497 -1565 0
-1497 -1566 0
-1497 -1567 0
-1497 -1568 0
-1497 -1569 0
-1497 -1570 0
-1497 -1571 0
-1497 -1572 0
-1497 -1573 0
-1497 -1574 0
-1497 -1575 0
-1497 -1576 0
-1497 -1577 0
-1497 -1578 0
-1498 -1499 0
-1498 -1500 0
-1498 -1501 0
-1498 -1502 0
-1498 -1503 0
-1498 -1504 0
-1498 -1505 0
-1498 -1506 0
-1498 -1507 0
-1498 -1508 0
-1498 -1509 0
-1498 -1510 0
-1498 -1511 0
-1498 -1512 0
-1498 -1513 0
-1498 -1514 0
-1498 -1515 0
-1498 -1516 0
-1498 -1517 0
-1498 -1518 0
-1498 -1519 0
-1498 -1520 0
-1498 -1521 0
-1498 -1522 0
-1498 -1523 0
-1498 -1524 0
-1498 -1525 0
-1498 -1526 0
-1498 -1527 0
-1498 -1528 0
-1498 -1529 0
-1498 -1530 0
-1498 -1531 0
-1498 -1532 0
-1498 -1533 0
-1498 -1534 0
-1498 -1535 0
-1498 -1536 0
-1498 -1537 0
-1498 -1538 0
-1498 -1539 0
-1498 -1540 0
-1498 -1541 0
-1498 -1542 0
-1498 -1543 0
-1498 -1544 0
-1498 -1545 0
-1498 -1546 0
-1498 -1547 0
-1498 -1548 0
-1498 -1549 0
-1498 -1550 0
-1498 -1551 0
-1498 -1552 0
-1498 -1553 0
-1498 -1554 0
-1498 -1555 0
-1498 -1556 0
-1498 -1557 0
-1498 -1558 0
-1498 -1559 0
-1498 -1560 0
-1498 -1561 0
-1498 -1562 0
-1498 -1563 0
-1498 -1564 0
-1498 -1565 0
-1498 -1566 0
-1498 -1567 0
-1498 -1568 0
-1498 -1569 0
-1498 -1570 0
-1498 -1571 0
-1498 -1572 0
-1498 -1573 0
-1498 -1574 0
-1498 -1575 0
-1498 -1576 0
-1498 -1577 0
-1498 -1578 0
-1499 -1500 0
-1499 -1501 0
-1499 -1502 0
-1499 -1503 0
-1499 -1504 0
-1499 -1505 0
-1499 -1506 0
-1499 -1507 0
-1499 -1508 0
-1499 -1509 0
-1499 -1510 0
-1499 -1511 0
-1499 -1512 0
-1499 -1513 0
-1499 -1514 0
-1499 -1515 0
-1499 -1516 0
-1499 -1517 0
-1499 -1518 0
-1499 -1519 0
-1499 -1520 0
-1499 -1521 0
-1499 -1522 0
-1499 -1523 0
-1499 -1524 0
-1499 -1525 0
-1499 -1526 0
-1499 -1527 0
-1499 -1528 0
-1499 -1529 0
-1499 -1530 0
-1499 -1531 0
-1499 -1532 0
-1499 -1533 0
-1499 -1534 0
-1499 -1535 0
-1499 -1536 0
-1499 -1537 0
-1499 -1538 0
-1499 -1539 0
-1499 -1540 0
-1499 -1541 0
-1499 -1542 0
-1499 -1543 0
-1499 -1544 0
-1499 -1545 0
-1499 -1546 0
-1499 -1547 0
-1499 -1548 0
-1499 -1549 0
-1499 -1550 0
-1499 -1551 0
-1499 -1552 0
-1499 -1553 0
-1499 -1554 0
-1499 -1555 0
-1499 -1556 0
-1499 -1557 0
-1499 -1558 0
-1499 -1559 0
-1499 -1560 0
-1499 -1561 0
-1499 -1562 0
-1499 -1563 0
-1499 -1564 0
-1499 -1565 0
-1499 -1566 0
-1499 -1567 0
-1499 -1568 0
-1499 -1569 0
-1499 -1570 0
-1499 -1571 0
-1499 -1572 0
-1499 -1573 0
-1499 -1574 0
-1499 -1575 0
-1499 -1576 0
-1499 -1577 0
-1499 -1578 0
-1500 -1501 0
-1500 -1502 0
-1500 -1503 0
-1500 -1504 0
-1500 -1505 0
-1500 -1506 0
-1500 -1507 0
-1500 -1508 0
-1500 -1509 0
-1500 -1510 0
-1500 -1511 0
-1500 -1512 0
-1500 -1513 0
-1500 -1514 0
-1500 -1515 0
-1500 -1516 0
-1500 -1517 0
-1500 -1518 0
-1500 -1519 0
-1500 -1520 0
-1500 -1521 0
-1500 -1522 0
-1500 -1523 0
-1500 -1524 0
-1500 -1525 0
-1500 -1526 0
-1500 -1527 0
-1500 -1528 0
-1500 -1529 0
-1500 -1530 0
-1500 -1531 0
-1500 -1532 0
-1500 -1533 0
-1500 -1534 0
-1500 -1535 0
-1500 -1536 0
-1500 -1537 0
-1500 -1538 0
-1500 -1539 0
-1500 -1540 0
-1500 -1541 0
-1500 -1542 0
-1500 -1543 0
-1500 -1544 0
-1500 -1545 0
-1500 -1546 0
-1500 -1547 0
-1500 -1548 0
-1500 -1549 0
-1500 -1550 0
-1500 -1551 0
-1500 -1552 0
-1500 -1553 0
-1500 -1554 0
-1500 -1555 0
-1500 -1556 0
-1500 -1557 0
-1500 -1558 0
-1500 -1559 0
-1500 -1560 0
-1500 -1561 0
-1500 -1562 0
-1500 -1563 0
-1500 -1564 0
-1500 -1565 0
-1500 -1566 0
-1500 -1567 0
-1500 -1568 0
-1500 -1569 0
-1500 -1570 0
-1500 -1571 0
-1500 -1572 0
-1500 -1573 0
-1500 -1574 0
-1500 -1575 0
-1500 -1576 0
-1500 -1577 0
-1500 -1578 0
-1501 -1502 0
-1501 -1503 0
-1501 -1504 0
-1501 -1505 0
-1501 -1506 0
-1501 -1507 0
-1501 -1508 0
-1501 -1509 0
-1501 -1510 0
-1501 -1511 0
-1501 -1512 0
-1501 -1513 0
-1501 -1514 0
-1501 -1515 0
-1501 -1516 0
-1501 -1517 0
-1501 -1518 0
-1501 -1519 0
-1501 -1520 0
-1501 -1521 0
-1501 -1522 0
-1501 -1523 0
-1501 -1524 0
-1501 -1525 0
-1501 -1526 0
-1501 -1527 0
-1501 -1528 0
-1501 -1529 0
-1501 -1530 0
-1501 -1531 0
-1501 -1532 0
-1501 -1533 0
-1501 -1534 0
-1501 -1535 0
-1501 -1536 0
-1501 -1537 0
-1501 -1538 0
-1501 -1539 0
-1501 -1540 0
-1501 -1541 0
-1501 -1542 0
-1501 -1543 0
-1501 -1544 0
-1501 -1545 0
-1501 -1546 0
-1501 -1547 0
-1501 -1548 0
-1501 -1549 0
-1501 -1550 0
-1501 -1551 0
-1501 -1552 0
-1501 -1553 0
-1501 -1554 0
-1501 -1555 0
-1501 -1556 0
-1501 -1557 0
-1501 -1558 0
-1501 -1559 0
-1501 -1560 0
-1501 -1561 0
-1501 -1562 0
-1501 -1563 0
-1501 -1564 0
-1501 -1565 0
-1501 -1566 0
-1501 -1567 0
-1501 -1568 0
-1501 -1569 0
-1501 -1570 0
-1501 -1571 0
-1501 -1572 0
-1501 -1573 0
-1501 -1574 0
-1501 -1575 0
-1501 -1576 0
-1501 -1577 0
-1501 -1578 0
-1502 -1503 0
-1502 -1504 0
-1502 -1505 0
-1502 -1506 0
-1502 -1507 0
-1502 -1508 0
-1502 -1509 0
-1502 -1510 0
-1502 -1511 0
-1502 -1512 0
-1502 -1513 0
-1502 -1514 0
-1502 -1515 0
-1502 -1516 0
-1502 -1517 0
-1502 -1518 0
-1502 -1519 0
-1502 -1520 0
-1502 -1521 0
-1502 -1522 0
-1502 -1523 0
-1502 -1524 0
-1502 -1525 0
-1502 -1526 0
-1502 -1527 0
-1502 -1528 0
-1502 -1529 0
-1502 -1530 0
-1502 -1531 0
-1502 -1532 0
-1502 -1533 0
-1502 -1534 0
-1502 -1535 0
-1502 -1536 0
-1502 -1537 0
-1502 -1538 0
-1502 -1539 0
-1502 -1540 0
-1502 -1541 0
-1502 -1542 0
-1502 -1543 0
-1502 -1544 0
-1502 -1545 0
-1502 -1546 0
-1502 -1547 0
-1502 -1548 0
-1502 -1549 0
-1502 -1550 0
-1502 -1551 0
-1502 -1552 0
-1502 -1553 0
-1502 -1554 0
-1502 -1555 0
-1502 -1556 0
-1502 -1557 0
-1502 -1558 0
-1502 -1559 0
-1502 -1560 0
-1502 -1561 0
-1502 -1562 0
-1502 -1563 0
-1502 -1564 0
-1502 -1565 0
-1502 -1566 0
-1502 -1567 0
-1502 -1568 0
-1502 -1569 0
-1502 -1570 0
-1502 -1571 0
-1502 -1572 0
-1502 -1573 0
-1502 -1574 0
-1502 -1575 0
-1502 -1576 0
-1502 -1577 0
-1502 -1578 0
-1503 -1504 0
-1503 -1505 0
-1503 -1506 0
-1503 -1507 0
-1503 -1508 0
-1503 -1509 0
-1503 -1510 0
-1503 -1511 0
-1503 -1512 0
-1503 -1513 0
-1503 -1514 0
-1503 -1515 0
-1503 -1516 0
-1503 -1517 0
-1503 -1518 0
-1503 -1519 0
-1503 -1520 0
-1503 -1521 0
-1503 -1522 0
-1503 -1523 0
-1503 -1524 0
-1503 -1525 0
-1503 -1526 0
-1503 -1527 0
-1503 -1528 0
-1503 -1529 0
-1503 -1530 0
-1503 -1531 0
-1503 -1532 0
-1503 -1533 0
-1503 -1534 0
-1503 -1535 0
-1503 -1536 0
-1503 -1537 0
-1503 -1538 0
-1503 -1539 0
-1503 -1540 0
-1503 -1541 0
-1503 -1542 0
-1503 -1543 0
-1503 -1544 0
-1503 -1545 0
-1503 -1546 0
-1503 -1547 0
-1503 -1548 0
-1503 -1549 0
-1503 -1550 0
-1503 -1551 0
-1503 -1552 0
-1503 -1553 0
-1503 -1554 0
-1503 -1555 0
-1503 -1556 0
-1503 -1557 0
-1503 -1558 0
-1503 -1559 0
-1503 -1560 0
-1503 -1561 0
-1503 -1562 0
-1503 -1563 0
-1503 -1564 0
-1503 -1565 0
-1503 -1566 0
-1503 -1567 0
-1503 -1568 0
-1503 -1569 0
-1503 -1570 0
-1503 -1571 0
-1503 -1572 0
-1503 -1573 0
-1503 -1574 0
-1503 -1575 0
-1503 -1576 0
-1503 -1577 0
-1503 -1578 0
-1504 -1505 0
-1504 -1506 0
-1504 -1507 0
-1504 -1508 0
-1504 -1509 0
-1504 -1510 0
-1504 -1511 0
-1504 -1512 0
-1504 -1513 0
-1504 -1514 0
-1504 -1515 0
-1504 -1516 0
-1504 -1517 0
-1504 -1518 0
-1504 -1519 0
-1504 -1520 0
-1504 -1521 0
-1504 -1522 0
-1504 -1523 0
-1504 -1524 0
-1504 -1525 0
-1504 -1526 0
-1504 -1527 0
-1504 -1528 0
-1504 -1529 0
-1504 -1530 0
-1504 -1531 0
-1504 -1532 0
-1504 -1533 0
-1504 -1534 0
-1504 -1535 0
-1504 -1536 0
-1504 -1537 0
-1504 -1538 0
-1504 -1539 0
-1504 -1540 0
-1504 -1541 0
-1504 -1542 0
-1504 -1543 0
-1504 -1544 0
-1504 -1545 0
-1504 -1546 0
-1504 -1547 0
-1504 -1548 0
-1504 -1549 0
-1504 -1550 0
-1504 -1551 0
-1504 -1552 0
-1504 -1553 0
-1504 -1554 0
-1504 -1555 0
-1504 -1556 0
-1504 -1557 0
-1504 -1558 0
-1504 -1559 0
-1504 -1560 0
-1504 -1561 0
-1504 -1562 0
-1504 -1563 0
-1504 -1564 0
-1504 -1565 0
-1504 -1566 0
-1504 -1567 0
-1504 -1568 0
-1504 -1569 0
-1504 -1570 0
-1504 -1571 0
-1504 -1572 0
-1504 -1573 0
-1504 -1574 0
-1504 -1575 0
-1504 -1576 0
-1504 -1577 0
-1504 -1578 0
-1505 -1506 0
-1505 -1507 0
-1505 -1508 0
-1505 -1509 0
-1505 -1510 0
-1505 -1511 0
-1505 -1512 0
-1505 -1513 0
-1505 -1514 0
-1505 -1515 0
-1505 -1516 0
-1505 -1517 0
-1505 -1518 0
-1505 -1519 0
-1505 -1520 0
-1505 -1521 0
-1505 -1522 0
-1505 -1523 0
-1505 -1524 0
-1505 -1525 0
-1505 -1526 0
-1505 -1527 0
-1505 -1528 0
-1505 -1529 0
-1505 -1530 0
-1505 -1531 0
-1505 -1532 0
-1505 -1533 0
-1505 -1534 0
-1505 -1535 0
-1505 -1536 0
-1505 -1537 0
-1505 -1538 0
-1505 -1539 0
-1505 -1540 0
-1505 -1541 0
-1505 -1542 0
-1505 -1543 0
-1505 -1544 0
-1505 -1545 0
-1505 -1546 0
-1505 -1547 0
-1505 -1548 0
-1505 -1549 0
-1505 -1550 0
-1505 -1551 0
-1505 -1552 0
-1505 -1553 0
-1505 -1554 0
-1505 -1555 0
-1505 -1556 0
-1505 -1557 0
-1505 -1558 0
-1505 -1559 0
-1505 -1560 0
-1505 -1561 0
-1505 -1562 0
-1505 -1563 0
-1505 -1564 0
-1505 -1565 0
-1505 -1566 0
-1505 -1567 0
-1505 -1568 0
-1505 -1569 0
-1505 -1570 0
-1505 -1571 0
-1505 -1572 0
-1505 -1573 0
-1505 -1574 0
-1505 -1575 0
-1505 -1576 0
-1505 -1577 0
-1505 -1578 0
-1506 -1507 0
-1506 -1508 0
-1506 -1509 0
-1506 -1510 0
-1506 -1511 0
-1506 -1512 0
-1506 -1513 0
-1506 -1514 0
-1506 -1515 0
-1506 -1516 0
-1506 -1517 0
-1506 -1518 0
-1506 -1519 0
-1506 -1520 0
-1506 -1521 0
-1506 -1522 0
-1506 -1523 0
-1506 -1524 0
-1506 -1525 0
-1506 -1526 0
-1506 -1527 0
-1506 -1528 0
-1506 -1529 0
-1506 -1530 0
-1506 -1531 0
-1506 -1532 0
-1506 -1533 0
-1506 -1534 0
-1506 -1535 0
-1506 -1536 0
-1506 -1537 0
-1506 -1538 0
-1506 -1539 0
-1506 -1540 0
-1506 -1541 0
-1506 -1542 0
-1506 -1543 0
-1506 -1544 0
-1506 -1545 0
-1506 -1546 0
-1506 -1547 0
-1506 -1548 0
-1506 -1549 0
-1506 -1550 0
-1506 -1551 0
-1506 -1552 0
-1506 -1553 0
-1506 -1554 0
-1506 -1555 0
-1506 -1556 0
-1506 -1557 0
-1506 -1558 0
-1506 -1559 0
-1506 -1560 0
-1506 -1561 0
-1506 -1562 0
-1506 -1563 0
-1506 -1564 0
-1506 -1565 0
-1506 -1566 0
-1506 -1567 0
-1506 -1568 0
-1506 -1569 0
-1506 -1570 0
-1506 -1571 0
-1506 -1572 0
-1506 -1573 0
-1506 -1574 0
-1506 -1575 0
-1506 -1576 0
-1506 -1577 0
-1506 -1578 0
-1507 -1508 0
-1507 -1509 0
-1507 -1510 0
-1507 -1511 0
-1507 -1512 0
-1507 -1513 0
-1507 -1514 0
-1507 -1515 0
-1507 -1516 0
-1507 -1517 0
-1507 -1518 0
-1507 -1519 0
-1507 -1520 0
-1507 -1521 0
-1507 -1522 0
-1507 -1523 0
-1507 -1524 0
-1507 -1525 0
-1507 -1526 0
-1507 -1527 0
-1507 -1528 0
-1507 -1529 0
-1507 -1530 0
-1507 -1531 0
-1507 -1532 0
-1507 -1533 0
-1507 -1534 0
-1507 -1535 0
-1507 -1536 0
-1507 -1537 0
-1507 -1538 0
-1507 -1539 0
-1507 -1540 0
-1507 -1541 0
-1507 -1542 0
-1507 -1543 0
-1507 -1544 0
-1507 -1545 0
-1507 -1546 0
-1507 -1547 0
-1507 -1548 0
-1507 -1549 0
-1507 -1550 0
-1507 -1551 0
-1507 -1552 0
-1507 -1553 0
-1507 -1554 0
-1507 -1555 0
-1507 -1556 0
-1507 -1557 0
-1507 -1558 0
-1507 -1559 0
-1507 -1560 0
-1507 -1561 0
-1507 -1562 0
-1507 -1563 0
-1507 -1564 0
-1507 -1565 0
-1507 -1566 0
-1507 -1567 0
-1507 -1568 0
-1507 -1569 0
-1507 -1570 0
-1507 -1571 0
-1507 -1572 0
-1507 -1573 0
-1507 -1574 0
-1507 -1575 0
-1507 -1576 0
-1507 -1577 0
-1507 -1578 0
-1508 -1509 0
-1508 -1510 0
-1508 -1511 0
-1508 -1512 0
-1508 -1513 0
-1508 -1514 0
-1508 -1515 0
-1508 -1516 0
-1508 -1517 0
-1508 -1518 0
-1508 -1519 0
-1508 -1520 0
-1508 -1521 0
-1508 -1522 0
-1508 -1523 0
-1508 -1524 0
-1508 -1525 0
-1508 -1526 0
-1508 -1527 0
-1508 -1528 0
-1508 -1529 0
-1508 -1530 0
-1508 -1531 0
-1508 -1532 0
-1508 -1533 0
-1508 -1534 0
-1508 -1535 0
-1508 -1536 0
-1508 -1537 0
-1508 -1538 0
-1508 -1539 0
-1508 -1540 0
-1508 -1541 0
-1508 -1542 0
-1508 -1543 0
-1508 -1544 0
-1508 -1545 0
-1508 -1546 0
-1508 -1547 0
-1508 -1548 0
-1508 -1549 0
-1508 -1550 0
-1508 -1551 0
-1508 -1552 0
-1508 -1553 0
-1508 -1554 0
-1508 -1555 0
-1508 -1556 0
-1508 -1557 0
-1508 -1558 0
-1508 -1559 0
-1508 -1560 0
-1508 -1561 0
-1508 -1562 0
-1508 -1563 0
-1508 -1564 0
-1508 -1565 0
-1508 -1566 0
-1508 -1567 0
-1508 -1568 0
-1508 -1569 0
-1508 -1570 0
-1508 -1571 0
-1508 -1572 0
-1508 -1573 0
-1508 -1574 0
-1508 -1575 0
-1508 -1576 0
-1508 -1577 0
-1508 -1578 0
-1509 -1510 0
-1509 -1511 0
-1509 -1512 0
-1509 -1513 0
-1509 -1514 0
-1509 -1515 0
-1509 -1516 0
-1509 -1517 0
-1509 -1518 0
-1509 -1519 0
-1509 -1520 0
-1509 -1521 0
-1509 -1522 0
-1509 -1523 0
-1509 -1524 0
-1509 -1525 0
-1509 -1526 0
-1509 -1527 0
-1509 -1528 0
-1509 -1529 0
-1509 -1530 0
-1509 -1531 0
-1509 -1532 0
-1509 -1533 0
-1509 -1534 0
-1509 -1535 0
-1509 -1536 0
-1509 -1537 0
-1509 -1538 0
-1509 -1539 0
-1509 -1540 0
-1509 -1541 0
-1509 -1542 0
-1509 -1543 0
-1509 -1544 0
-1509 -1545 0
-1509 -1546 0
-1509 -1547 0
-1509 -1548 0
-1509 -1549 0
-1509 -1550 0
-1509 -1551 0
-1509 -1552 0
-1509 -1553 0
-1509 -1554 0
-1509 -1555 0
-1509 -1556 0
-1509 -1557 0
-1509 -1558 0
-1509 -1559 0
-1509 -1560 0
-1509 -1561 0
-1509 -1562 0
-1509 -1563 0
-1509 -1564 0
-1509 -1565 0
-1509 -1566 0
-1509 -1567 0
-1509 -1568 0
-1509 -1569 0
-1509 -1570 0
-1509 -1571 0
-1509 -1572 0
-1509 -1573 0
-1509 -1574 0
-1509 -1575 0
-1509 -1576 0
-1509 -1577 0
-1509 -1578 0
-1510 -1511 0
-1510 -1512 0
-1510 -1513 0
-1510 -1514 0
-1510 -1515 0
-1510 -1516 0
-1510 -1517 0
-1510 -1518 0
-1510 -1519 0
-1510 -1520 0
-1510 -1521 0
-1510 -1522 0
-1510 -1523 0
-1510 -1524 0
-1510 -1525 0
-1510 -1526 0
-1510 -1527 0
-1510 -1528 0
-1510 -1529 0
-1510 -1530 0
-1510 -1531 0
-1510 -1532 0
-1510 -1533 0
-1510 -1534 0
-1510 -1535 0
-1510 -1536 0
-1510 -1537 0
-1510 -1538 0
-1510 -1539 0
-1510 -1540 0
-1510 -1541 0
-1510 -1542 0
-1510 -1543 0
-1510 -1544 0
-1510 -1545 0
-1510 -1546 0
-1510 -1547 0
-1510 -1548 0
-1510 -1549 0
-1510 -1550 0
-1510 -1551 0
-1510 -1552 0
-1510 -1553 0
-1510 -1554 0
-1510 -1555 0
-1510 -1556 0
-1510 -1557 0
-1510 -1558 0
-1510 -1559 0
-1510 -1560 0
-1510 -1561 0
-1510 -1562 0
-1510 -1563 0
-1510 -1564 0
-1510 -1565 0
-1510 -1566 0
-1510 -1567 0
-1510 -1568 0
-1510 -1569 0
-1510 -1570 0
-1510 -1571 0
-1510 -1572 0
-1510 -1573 0
-1510 -1574 0
-1510 -1575 0
-1510 -1576 0
-1510 -1577 0
-1510 -1578 0
-1511 -1512 0
-1511 -1513 0
-1511 -1514 0
-1511 -1515 0
-1511 -1516 0
-1511 -1517 0
-1511 -1518 0
-1511 -1519 0
-1511 -1520 0
-1511 -1521 0
-1511 -1522 0
-1511 -1523 0
-1511 -1524 0
-1511 -1525 0
-1511 -1526 0
-1511 -1527 0
-1511 -1528 0
-1511 -1529 0
-1511 -1530 0
-1511 -1531 0
-1511 -1532 0
-1511 -1533 0
-1511 -1534 0
-1511 -1535 0
-1511 -1536 0
-1511 -1537 0
-1511 -1538 0
-1511 -1539 0
-1511 -1540 0
-1511 -1541 0
-1511 -1542 0
-1511 -1543 0
-1511 -1544 0
-1511 -1545 0
-1511 -1546 0
-1511 -1547 0
-1511 -1548 0
-1511 -1549 0
-1511 -1550 0
-1511 -1551 0
-1511 -1552 0
-1511 -1553 0
-1511 -1554 0
-1511 -1555 0
-1511 -1556 0
-1511 -1557 0
-1511 -1558 0
-1511 -1559 0
-1511 -1560 0
-1511 -1561 0
-1511 -1562 0
-1511 -1563 0
-1511 -1564 0
-1511 -1565 0
-1511 -1566 0
-1511 -1567 0
-1511 -1568 0
-1511 -1569 0
-1511 -1570 0
-1511 -1571 0
-1511 -1572 0
-1511 -1573 0
-1511 -1574 0
-1511 -1575 0
-1511 -1576 0
-1511 -1577 0
-1511 -1578 0
-1512 -1513 0
-1512 -1514 0
-1512 -1515 0
-1512 -1516 0
-1512 -1517 0
-1512 -1518 0
-1512 -1519 0
-1512 -1520 0
-1512 -1521 0
-1512 -1522 0
-1512 -1523 0
-1512 -1524 0
-1512 -1525 0
-1512 -1526 0
-1512 -1527 0
-1512 -1528 0
-1512 -1529 0
-1512 -1530 0
-1512 -1531 0
-1512 -1532 0
-1512 -1533 0
-1512 -1534 0
-1512 -1535 0
-1512 -1536 0
-1512 -1537 0
-1512 -1538 0
-1512 -1539 0
-1512 -1540 0
-1512 -1541 0
-1512 -1542 0
-1512 -1543 0
-1512 -1544 0
-1512 -1545 0
-1512 -1546 0
-1512 -1547 0
-1512 -1548 0
-1512 -1549 0
-1512 -1550 0
-1512 -1551 0
-1512 -1552 0
-1512 -1553 0
-1512 -1554 0
-1512 -1555 0
-1512 -1556 0
-1512 -1557 0
-1512 -1558 0
-1512 -1559 0
-1512 -1560 0
-1512 -1561 0
-1512 -1562 0
-1512 -1563 0
-1512 -1564 0
-1512 -1565 0
-1512 -1566 0
-1512 -1567 0
-1512 -1568 0
-1512 -1569 0
-1512 -1570 0
-1512 -1571 0
-1512 -1572 0
-1512 -1573 0
-1512 -1574 0
-1512 -1575 0
-1512 -1576 0
-1512 -1577 0
-1512 -1578 0
-1513 -1514 0
-1513 -1515 0
-1513 -1516 0
-1513 -1517 0
-1513 -1518 0
-1513 -1519 0
-1513 -1520 0
-1513 -1521 0
-1513 -1522 0
-1513 -1523 0
-1513 -1524 0
-1513 -1525 0
-1513 -1526 0
-1513 -1527 0
-1513 -1528 0
-1513 -1529 0
-1513 -1530 0
-1513 -1531 0
-1513 -1532 0
-1513 -1533 0
-1513 -1534 0
-1513 -1535 0
-1513 -1536 0
-1513 -1537 0
-1513 -1538 0
-1513 -1539 0
-1513 -1540 0
-1513 -1541 0
-1513 -1542 0
-1513 -1543 0
-1513 -1544 0
-1513 -1545 0
-1513 -1546 0
-1513 -1547 0
-1513 -1548 0
-1513 -1549 0
-1513 -1550 0
-1513 -1551 0
-1513 -1552 0
-1513 -1553 0
-1513 -1554 0
-1513 -1555 0
-1513 -1556 0
-1513 -1557 0
-1513 -1558 0
-1513 -1559 0
-1513 -1560 0
-1513 -1561 0
-1513 -1562 0
-1513 -1563 0
-1513 -1564 0
-1513 -1565 0
-1513 -1566 0
-1513 -1567 0
-1513 -1568 0
-1513 -1569 0
-1513 -1570 0
-1513 -1571 0
-1513 -1572 0
-1513 -1573 0
-1513 -1574 0
-1513 -1575 0
-1513 -1576 0
-1513 -1577 0
-1513 -1578 0
-1514 -1515 0
-1514 -1516 0
-1514 -1517 0
-1514 -1518 0
-1514 -1519 0
-1514 -1520 0
-1514 -1521 0
-1514 -1522 0
-1514 -1523 0
-1514 -1524 0
-1514 -1525 0
-1514 -1526 0
-1514 -1527 0
-1514 -1528 0
-1514 -1529 0
-1514 -1530 0
-1514 -1531 0
-1514 -1532 0
-1514 -1533 0
-1514 -1534 0
-1514 -1535 0
-1514 -1536 0
-1514 -1537 0
-1514 -1538 0
-1514 -1539 0
-1514 -1540 0
-1514 -1541 0
-1514 -1542 0
-1514 -1543 0
-1514 -1544 0
-1514 -1545 0
-1514 -1546 0
-1514 -1547 0
-1514 -1548 0
-1514 -1549 0
-1514 -1550 0
-1514 -1551 0
-1514 -1552 0
-1514 -1553 0
-1514 -1554 0
-1514 -1555 0
-1514 -1556 0
-1514 -1557 0
-1514 -1558 0
-1514 -1559 0
-1514 -1560 0
-1514 -1561 0
-1514 -1562 0
-1514 -1563 0
-1514 -1564 0
-1514 -1565 0
-1514 -1566 0
-1514 -1567 0
-1514 -1568 0
-1514 -1569 0
-1514 -1570 0
-1514 -1571 0
-1514 -1572 0
-1514 -1573 0
-1514 -1574 0
-1514 -1575 0
-1514 -1576 0
-1514 -1577 0
-1514 -1578 0
-1515 -1516 0
-1515 -1517 0
-1515 -1518 0
-1515 -1519 0
-1515 -1520 0
-1515 -1521 0
-1515 -1522 0
-1515 -1523 0
-1515 -1524 0
-1515 -1525 0
-1515 -1526 0
-1515 -1527 0
-1515 -1528 0
-1515 -1529 0
-1515 -1530 0
-1515 -1531 0
-1515 -1532 0
-1515 -1533 0
-1515 -1534 0
-1515 -1535 0
-1515 -1536 0
-1515 -1537 0
-1515 -1538 0
-1515 -1539 0
-1515 -1540 0
-1515 -1541 0
-1515 -1542 0
-1515 -1543 0
-1515 -1544 0
-1515 -1545 0
-1515 -1546 0
-1515 -1547 0
-1515 -1548 0
-1515 -1549 0
-1515 -1550 0
-1515 -1551 0
-1515 -1552 0
-1515 -1553 0
-1515 -1554 0
-1515 -1555 0
-1515 -1556 0
-1515 -1557 0
-1515 -1558 0
-1515 -1559 0
-1515 -1560 0
-1515 -1561 0
-1515 -1562 0
-1515 -1563 0
-1515 -1564 0
-1515 -1565 0
-1515 -1566 0
-1515 -1567 0
-1515 -1568 0
-1515 -1569 0
-1515 -1570 0
-1515 -1571 0
-1515 -1572 0
-1515 -1573 0
-1515 -1574 0
-1515 -1575 0
-1515 -1576 0
-1515 -1577 0
-1515 -1578 0
-1516 -1517 0
-1516 -1518 0
-1516 -1519 0
-1516 -1520 0
-1516 -1521 0
-1516 -1522 0
-1516 -1523 0
-1516 -1524 0
-1516 -1525 0
-1516 -1526 0
-1516 -1527 0
-1516 -1528 0
-1516 -1529 0
-1516 -1530 0
-1516 -1531 0
-1516 -1532 0
-1516 -1533 0
-1516 -1534 0
-1516 -1535 0
-1516 -1536 0
-1516 -1537 0
-1516 -1538 0
-1516 -1539 0
-1516 -1540 0
-1516 -1541 0
-1516 -1542 0
-1516 -1543 0
-1516 -1544 0
-1516 -1545 0
-1516 -1546 0
-1516 -1547 0
-1516 -1548 0
-1516 -1549 0
-1516 -1550 0
-1516 -1551 0
-1516 -1552 0
-1516 -1553 0
-1516 -1554 0
-1516 -1555 0
-1516 -1556 0
-1516 -1557 0
-1516 -1558 0
-1516 -1559 0
-1516 -1560 0
-1516 -1561 0
-1516 -1562 0
-1516 -1563 0
-1516 -1564 0
-1516 -1565 0
-1516 -1566 0
-1516 -1567 0
-1516 -1568 0
-1516 -1569 0
-1516 -1570 0
-1516 -1571 0
-1516 -1572 0
-1516 -1573 0
-1516 -1574 0
-1516 -1575 0
-1516 -1576 0
-1516 -1577 0
-1516 -1578 0
-1517 -1518 0
-1517 -1519 0
-1517 -1520 0
-1517 -1521 0
-1517 -1522 0
-1517 -1523 0
-1517 -1524 0
-1517 -1525 0
-1517 -1526 0
-1517 -1527 0
-1517 -1528 0
-1517 -1529 0
-1517 -1530 0
-1517 -1531 0
-1517 -1532 0
-1517 -1533 0
-1517 -1534 0
-1517 -1535 0
-1517 -1536 0
-1517 -1537 0
-1517 -1538 0
-1517 -1539 0
-1517 -1540 0
-1517 -1541 0
-1517 -1542 0
-1517 -1543 0
-1517 -1544 0
-1517 -1545 0
-1517 -1546 0
-1517 -1547 0
-1517 -1548 0
-1517 -1549 0
-1517 -1550 0
-1517 -1551 0
-1517 -1552 0
-1517 -1553 0
-1517 -1554 0
-1517 -1555 0
-1517 -1556 0
-1517 -1557 0
-1517 -1558 0
-1517 -1559 0
-1517 -1560 0
-1517 -1561 0
-1517 -1562 0
-1517 -1563 0
-1517 -1564 0
-1517 -1565 0
-1517 -1566 0
-1517 -1567 0
-1517 -1568 0
-1517 -1569 0
-1517 -1570 0
-1517 -1571 0
-1517 -1572 0
-1517 -1573 0
-1517 -1574 0
-1517 -1575 0
-1517 -1576 0
-1517 -1577 0
-1517 -1578 0
-1518 -1519 0
-1518 -1520 0
-1518 -1521 0
-1518 -1522 0
-1518 -1523 0
-1518 -1524 0
-1518 -1525 0
-1518 -1526 0
-1518 -1527 0
-1518 -1528 0
-1518 -1529 0
-1518 -1530 0
-1518 -1531 0
-1518 -1532 0
-1518 -1533 0
-1518 -1534 0
-1518 -1535 0
-1518 -1536 0
-1518 -1537 0
-1518 -1538 0
-1518 -1539 0
-1518 -1540 0
-1518 -1541 0
-1518 -1542 0
-1518 -1543 0
-1518 -1544 0
-1518 -1545 0
-1518 -1546 0
-1518 -1547 0
-1518 -1548 0
-1518 -1549 0
-1518 -1550 0
-1518 -1551 0
-1518 -1552 0
-1518 -1553 0
-1518 -1554 0
-1518 -1555 0
-1518 -1556 0
-1518 -1557 0
-1518 -1558 0
-1518 -1559 0
-1518 -1560 0
-1518 -1561 0
-1518 -1562 0
-1518 -1563 0
-1518 -1564 0
-1518 -1565 0
-1518 -1566 0
-1518 -1567 0
-1518 -1568 0
-1518 -1569 0
-1518 -1570 0
-1518 -1571 0
-1518 -1572 0
-1518 -1573 0
-1518 -1574 0
-1518 -1575 0
-1518 -1576 0
-1518 -1577 0
-1518 -1578 0
-1519 -1520 0
-1519 -1521 0
-1519 -1522 0
-1519 -1523 0
-1519 -1524 0
-1519 -1525 0
-1519 -1526 0
-1519 -1527 0
-1519 -1528 0
-1519 -1529 0
-1519 -1530 0
-1519 -1531 0
-1519 -1532 0
-1519 -1533 0
-1519 -1534 0
-1519 -1535 0
-1519 -1536 0
-1519 -1537 0
-1519 -1538 0
-1519 -1539 0
-1519 -1540 0
-1519 -1541 0
-1519 -1542 0
-1519 -1543 0
-1519 -1544 0
-1519 -1545 0
-1519 -1546 0
-1519 -1547 0
-1519 -1548 0
-1519 -1549 0
-1519 -1550 0
-1519 -1551 0
-1519 -1552 0
-1519 -1553 0
-1519 -1554 0
-1519 -1555 0
-1519 -1556 0
-1519 -1557 0
-1519 -1558 0
-1519 -1559 0
-1519 -1560 0
-1519 -1561 0
-1519 -1562 0
-1519 -1563 0
-1519 -1564 0
-1519 -1565 0
-1519 -1566 0
-1519 -1567 0
-1519 -1568 0
-1519 -1569 0
-1519 -1570 0
-1519 -1571 0
-1519 -1572 0
-1519 -1573 0
-1519 -1574 0
-1519 -1575 0
-1519 -1576 0
-1519 -1577 0
-1519 -1578 0
-1520 -1521 0
-1520 -1522 0
-1520 -1523 0
-1520 -1524 0
-1520 -1525 0
-1520 -1526 0
-1520 -1527 0
-1520 -1528 0
-1520 -1529 0
-1520 -1530 0
-1520 -1531 0
-1520 -1532 0
-1520 -1533 0
-1520 -1534 0
-1520 -1535 0
-1520 -1536 0
-1520 -1537 0
-1520 -1538 0
-1520 -1539 0
-1520 -1540 0
-1520 -1541 0
-1520 -1542 0
-1520 -1543 0
-1520 -1544 0
-1520 -1545 0
-1520 -1546 0
-1520 -1547 0
-1520 -1548 0
-1520 -1549 0
-1520 -1550 0
-1520 -1551 0
-1520 -1552 0
-1520 -1553 0
-1520 -1554 0
-1520 -1555 0
-1520 -1556 0
-1520 -1557 0
-1520 -1558 0
-1520 -1559 0
-1520 -1560 0
-1520 -1561 0
-1520 -1562 0
-1520 -1563 0
-1520 -1564 0
-1520 -1565 0
-1520 -1566 0
-1520 -1567 0
-1520 -1568 0
-1520 -1569 0
-1520 -1570 0
-1520 -1571 0
-1520 -1572 0
-1520 -1573 0
-1520 -1574 0
-1520 -1575 0
-1520 -1576 0
-1520 -1577 0
-1520 -1578 0
-1521 -1522 0
-1521 -1523 0
-1521 -1524 0
-1521 -1525 0
-1521 -1526 0
-1521 -1527 0
-1521 -1528 0
-1521 -1529 0
-1521 -1530 0
-1521 -1531 0
-1521 -1532 0
-1521 -1533 0
-1521 -1534 0
-1521 -1535 0
-1521 -1536 0
-1521 -1537 0
-1521 -1538 0
-1521 -1539 0
-1521 -1540 0
-1521 -1541 0
-1521 -1542 0
-1521 -1543 0
-1521 -1544 0
-1521 -1545 0
-1521 -1546 0
-1521 -1547 0
-1521 -1548 0
-1521 -1549 0
-1521 -1550 0
-1521 -1551 0
-1521 -1552 0
-1521 -1553 0
-1521 -1554 0
-1521 -1555 0
-1521 -1556 0
-1521 -1557 0
-1521 -1558 0
-1521 -1559 0
-1521 -1560 0
-1521 -1561 0
-1521 -1562 0
-1521 -1563 0
-1521 -1564 0
-1521 -1565 0
-1521 -1566 0
-1521 -1567 0
-1521 -1568 0
-1521 -1569 0
-1521 -1570 0
-1521 -1571 0
-1521 -1572 0
-1521 -1573 0
-1521 -1574 0
-1521 -1575 0
-1521 -1576 0
-1521 -1577 0
-1521 -1578 0
-1522 -1523 0
-1522 -1524 0
-1522 -1525 0
-1522 -1526 0
-1522 -1527 0
-1522 -1528 0
-1522 -1529 0
-1522 -1530 0
-1522 -1531 0
-1522 -1532 0
-1522 -1533 0
-1522 -1534 0
-1522 -1535 0
-1522 -1536 0
-1522 -1537 0
-1522 -1538 0
-1522 -1539 0
-1522 -1540 0
-1522 -1541 0
-1522 -1542 0
-1522 -1543 0
-1522 -1544 0
-1522 -1545 0
-1522 -1546 0
-1522 -1547 0
-1522 -1548 0
-1522 -1549 0
-1522 -1550 0
-1522 -1551 0
-1522 -1552 0
-1522 -1553 0
-1522 -1554 0
-1522 -1555 0
-1522 -1556 0
-1522 -1557 0
-1522 -1558 0
-1522 -1559 0
-1522 -1560 0
-1522 -1561 0
-1522 -1562 0
-1522 -1563 0
-1522 -1564 0
-1522 -1565 0
-1522 -1566 0
-1522 -1567 0
-1522 -1568 0
-1522 -1569 0
-1522 -1570 0
-1522 -1571 0
-1522 -1572 0
-1522 -1573 0
-1522 -1574 0
-1522 -1575 0
-1522 -1576 0
-1522 -1577 0
-1522 -1578 0
-1523 -1524 0
-1523 -1525 0
-1523 -1526 0
-1523 -1527 0
-1523 -1528 0
-1523 -1529 0
-1523 -1530 0
-1523 -1531 0
-1523 -1532 0
-1523 -1533 0
-1523 -1534 0
-1523 -1535 0
-1523 -1536 0
-1523 -1537 0
-1523 -1538 0
-1523 -1539 0
-1523 -1540 0
-1523 -1541 0
-1523 -1542 0
-1523 -1543 0
-1523 -1544 0
-1523 -1545 0
-1523 -1546 0
-1523 -1547 0
-1523 -1548 0
-1523 -1549 0
-1523 -1550 0
-1523 -1551 0
-1523 -1552 0
-1523 -1553 0
-1523 -1554 0
-1523 -1555 0
-1523 -1556 0
-1523 -1557 0
-1523 -1558 0
-1523 -1559 0
-1523 -1560 0
-1523 -1561 0
-1523 -1562 0
-1523 -1563 0
-1523 -1564 0
-1523 -1565 0
-1523 -1566 0
-1523 -1567 0
-1523 -1568 0
-1523 -1569 0
-1523 -1570 0
-1523 -1571 0
-1523 -1572 0
-1523 -1573 0
-1523 -1574 0
-1523 -1575 0
-1523 -1576 0
-1523 -1577 0
-1523 -1578 0
-1524 -1525 0
-1524 -1526 0
-1524 -1527 0
-1524 -1528 0
-1524 -1529 0
-1524 -1530 0
-1524 -1531 0
-1524 -1532 0
-1524 -1533 0
-1524 -1534 0
-1524 -1535 0
-1524 -1536 0
-1524 -1537 0
-1524 -1538 0
-1524 -1539 0
-1524 -1540 0
-1524 -1541 0
-1524 -1542 0
-1524 -1543 0
-1524 -1544 0
-1524 -1545 0
-1524 -1546 0
-1524 -1547 0
-1524 -1548 0
-1524 -1549 0
-1524 -1550 0
-1524 -1551 0
-1524 -1552 0
-1524 -1553 0
-1524 -1554 0
-1524 -1555 0
-1524 -1556 0
-1524 -1557 0
-1524 -1558 0
-1524 -1559 0
-1524 -1560 0
-1524 -1561 0
-1524 -1562 0
-1524 -1563 0
-1524 -1564 0
-1524 -1565 0
-1524 -1566 0
-1524 -1567 0
-1524 -1568 0
-1524 -1569 0
-1524 -1570 0
-1524 -1571 0
-1524 -1572 0
-1524 -1573 0
-1524 -1574 0
-1524 -1575 0
-1524 -1576 0
-1524 -1577 0
-1524 -1578 0
-1525 -1526 0
-1525 -1527 0
-1525 -1528 0
-1525 -1529 0
-1525 -1530 0
-1525 -1531 0
-1525 -1532 0
-1525 -1533 0
-1525 -1534 0
-1525 -1535 0
-1525 -1536 0
-1525 -1537 0
-1525 -1538 0
-1525 -1539 0
-1525 -1540 0
-1525 -1541 0
-1525 -1542 0
-1525 -1543 0
-1525 -1544 0
-1525 -1545 0
-1525 -1546 0
-1525 -1547 0
-1525 -1548 0
-1525 -1549 0
-1525 -1550 0
-1525 -1551 0
-1525 -1552 0
-1525 -1553 0
-1525 -1554 0
-1525 -1555 0
-1525 -1556 0
-1525 -1557 0
-1525 -1558 0
-1525 -1559 0
-1525 -1560 0
-1525 -1561 0
-1525 -1562 0
-1525 -1563 0
-1525 -1564 0
-1525 -1565 0
-1525 -1566 0
-1525 -1567 0
-1525 -1568 0
-1525 -1569 0
-1525 -1570 0
-1525 -1571 0
-1525 -1572 0
-1525 -1573 0
-1525 -1574 0
-1525 -1575 0
-1525 -1576 0
-1525 -1577 0
-1525 -1578 0
-1526 -1527 0
-1526 -1528 0
-1526 -1529 0
-1526 -1530 0
-1526 -1531 0
-1526 -1532 0
-1526 -1533 0
-1526 -1534 0
-1526 -1535 0
-1526 -1536 0
-1526 -1537 0
-1526 -1538 0
-1526 -1539 0
-1526 -1540 0
-1526 -1541 0
-1526 -1542 0
-1526 -1543 0
-1526 -1544 0
-1526 -1545 0
-1526 -1546 0
-1526 -1547 0
-1526 -1548 0
-1526 -1549 0
-1526 -1550 0
-1526 -1551 0
-1526 -1552 0
-1526 -1553 0
-1526 -1554 0
-1526 -1555 0
-1526 -1556 0
-1526 -1557 0
-1526 -1558 0
-1526 -1559 0
-1526 -1560 0
-1526 -1561 0
-1526 -1562 0
-1526 -1563 0
-1526 -1564 0
-1526 -1565 0
-1526 -1566 0
-1526 -1567 0
-1526 -1568 0
-1526 -1569 0
-1526 -1570 0
-1526 -1571 0
-1526 -1572 0
-1526 -1573 0
-1526 -1574 0
-1526 -1575 0
-1526 -1576 0
-1526 -1577 0
-1526 -1578 0
-1527 -1528 0
-1527 -1529 0
-1527 -1530 0
-1527 -1531 0
-1527 -1532 0
-1527 -1533 0
-1527 -1534 0
-1527 -1535 0
-1527 -1536 0
-1527 -1537 0
-1527 -1538 0
-1527 -1539 0
-1527 -1540 0
-1527 -1541 0
-1527 -1542 0
-1527 -1543 0
-1527 -1544 0
-1527 -1545 0
-1527 -1546 0
-1527 -1547 0
-1527 -1548 0
-1527 -1549 0
-1527 -1550 0
-1527 -1551 0
-1527 -1552 0
-1527 -1553 0
-1527 -1554 0
-1527 -1555 0
-1527 -1556 0
-1527 -1557 0
-1527 -1558 0
-1527 -1559 0
-1527 -1560 0
-1527 -1561 0
-1527 -1562 0
-1527 -1563 0
-1527 -1564 0
-1527 -1565 0
-1527 -1566 0
-1527 -1567 0
-1527 -1568 0
-1527 -1569 0
-1527 -1570 0
-1527 -1571 0
-1527 -1572 0
-1527 -1573 0
-1527 -1574 0
-1527 -1575 0
-1527 -1576 0
-1527 -1577 0
-1527 -1578 0
-1528 -1529 0
-1528 -1530 0
-1528 -1531 0
-1528 -1532 0
-1528 -1533 0
-1528 -1534 0
-1528 -1535 0
-1528 -1536 0
-1528 -1537 0
-1528 -1538 0
-1528 -1539 0
-1528 -1540 0
-1528 -1541 0
-1528 -1542 0
-1528 -1543 0
-1528 -1544 0
-1528 -1545 0
-1528 -1546 0
-1528 -1547 0
-1528 -1548 0
-1528 -1549 0
-1528 -1550 0
-1528 -1551 0
-1528 -1552 0
-1528 -1553 0
-1528 -1554 0
-1528 -1555 0
-1528 -1556 0
-1528 -1557 0
-1528 -1558 0
-1528 -1559 0
-1528 -1560 0
-1528 -1561 0
-1528 -1562 0
-1528 -1563 0
-1528 -1564 0
-1528 -1565 0
-1528 -1566 0
-1528 -1567 0
-1528 -1568 0
-1528 -1569 0
-1528 -1570 0
-1528 -1571 0
-1528 -1572 0
-1528 -1573 0
-1528 -1574 0
-1528 -1575 0
-1528 -1576 0
-1528 -1577 0
-1528 -1578 0
-1529 -1530 0
-1529 -1531 0
-1529 -1532 0
-1529 -1533 0
-1529 -1534 0
-1529 -1535 0
-1529 -1536 0
-1529 -1537 0
-1529 -1538 0
-1529 -1539 0
-1529 -1540 0
-1529 -1541 0
-1529 -1542 0
-1529 -1543 0
-1529 -1544 0
-1529 -1545 0
-1529 -1546 0
-1529 -1547 0
-1529 -1548 0
-1529 -1549 0
-1529 -1550 0
-1529 -1551 0
-1529 -1552 0
-1529 -1553 0
-1529 -1554 0
-1529 -1555 0
-1529 -1556 0
-1529 -1557 0
-1529 -1558 0
-1529 -1559 0
-1529 -1560 0
-1529 -1561 0
-1529 -1562 0
-1529 -1563 0
-1529 -1564 0
-1529 -1565 0
-1529 -1566 0
-1529 -1567 0
-1529 -1568 0
-1529 -1569 0
-1529 -1570 0
-1529 -1571 0
-1529 -1572 0
-1529 -1573 0
-1529 -1574 0
-1529 -1575 0
-1529 -1576 0
-1529 -1577 0
-1529 -1578 0
-1530 -1531 0
-1530 -1532 0
-1530 -1533 0
-1530 -1534 0
-1530 -1535 0
-1530 -1536 0
-1530 -1537 0
-1530 -1538 0
-1530 -1539 0
-1530 -1540 0
-1530 -1541 0
-1530 -1542 0
-1530 -1543 0
-1530 -1544 0
-1530 -1545 0
-1530 -1546 0
-1530 -1547 0
-1530 -1548 0
-1530 -1549 0
-1530 -1550 0
-1530 -1551 0
-1530 -1552 0
-1530 -1553 0
-1530 -1554 0
-1530 -1555 0
-1530 -1556 0
-1530 -1557 0
-1530 -1558 0
-1530 -1559 0
-1530 -1560 0
-1530 -1561 0
-1530 -1562 0
-1530 -1563 0
-1530 -1564 0
-1530 -1565 0
-1530 -1566 0
-1530 -1567 0
-1530 -1568 0
-1530 -1569 0
-1530 -1570 0
-1530 -1571 0
-1530 -1572 0
-1530 -1573 0
-1530 -1574 0
-1530 -1575 0
-1530 -1576 0
-1530 -1577 0
-1530 -1578 0
-1531 -1532 0
-1531 -1533 0
-1531 -1534 0
-1531 -1535 0
-1531 -1536 0
-1531 -1537 0
-1531 -1538 0
-1531 -1539 0
-1531 -1540 0
-1531 -1541 0
-1531 -1542 0
-1531 -1543 0
-1531 -1544 0
-1531 -1545 0
-1531 -1546 0
-1531 -1547 0
-1531 -1548 0
-1531 -1549 0
-1531 -1550 0
-1531 -1551 0
-1531 -1552 0
-1531 -1553 0
-1531 -1554 0
-1531 -1555 0
-1531 -1556 0
-1531 -1557 0
-1531 -1558 0
-1531 -1559 0
-1531 -1560 0
-1531 -1561 0
-1531 -1562 0
-1531 -1563 0
-1531 -1564 0
-1531 -1565 0
-1531 -1566 0
-1531 -1567 0
-1531 -1568 0
-1531 -1569 0
-1531 -1570 0
-1531 -1571 0
-1531 -1572 0
-1531 -1573 0
-1531 -1574 0
-1531 -1575 0
-1531 -1576 0
-1531 -1577 0
-1531 -1578 0
-1532 -1533 0
-1532 -1534 0
-1532 -1535 0
-1532 -1536 0
-1532 -1537 0
-1532 -1538 0
-1532 -1539 0
-1532 -1540 0
-1532 -1541 0
-1532 -1542 0
-1532 -1543 0
-1532 -1544 0
-1532 -1545 0
-1532 -1546 0
-1532 -1547 0
-1532 -1548 0
-1532 -1549 0
-1532 -1550 0
-1532 -1551 0
-1532 -1552 0
-1532 -1553 0
-1532 -1554 0
-1532 -1555 0
-1532 -1556 0
-1532 -1557 0
-1532 -1558 0
-1532 -1559 0
-1532 -1560 0
-1532 -1561 0
-1532 -1562 0
-1532 -1563 0
-1532 -1564 0
-1532 -1565 0
-1532 -1566 0
-1532 -1567 0
-1532 -1568 0
-1532 -1569 0
-1532 -1570 0
-1532 -1571 0
-1532 -1572 0
-1532 -1573 0
-1532 -1574 0
-1532 -1575 0
-1532 -1576 0
-1532 -1577 0
-1532 -1578 0
-1533 -1534 0
-1533 -1535 0
-1533 -1536 0
-1533 -1537 0
-1533 -1538 0
-1533 -1539 0
-1533 -1540 0
-1533 -1541 0
-1533 -1542 0
-1533 -1543 0
-1533 -1544 0
-1533 -1545 0
-1533 -1546 0
-1533 -1547 0
-1533 -1548 0
-1533 -1549 0
-1533 -1550 0
-1533 -1551 0
-1533 -1552 0
-1533 -1553 0
-1533 -1554 0
-1533 -1555 0
-1533 -1556 0
-1533 -1557 0
-1533 -1558 0
-1533 -1559 0
-1533 -1560 0
-1533 -1561 0
-1533 -1562 0
-1533 -1563 0
-1533 -1564 0
-1533 -1565 0
-1533 -1566 0
-1533 -1567 0
-1533 -1568 0
-1533 -1569 0
-1533 -1570 0
-1533 -1571 0
-1533 -1572 0
-1533 -1573 0
-1533 -1574 0
-1533 -1575 0
-1533 -1576 0
-1533 -1577 0
-1533 -1578 0
-1534 -1535 0
-1534 -1536 0
-1534 -1537 0
-1534 -1538 0
-1534 -1539 0
-1534 -1540 0
-1534 -1541 0
-1534 -1542 0
-1534 -1543 0
-1534 -1544 0
-1534 -1545 0
-1534 -1546 0
-1534 -1547 0
-1534 -1548 0
-1534 -1549 0
-1534 -1550 0
-1534 -1551 0
-1534 -1552 0
-1534 -1553 0
-1534 -1554 0
-1534 -1555 0
-1534 -1556 0
-1534 -1557 0
-1534 -1558 0
-1534 -1559 0
-1534 -1560 0
-1534 -1561 0
-1534 -1562 0
-1534 -1563 0
-1534 -1564 0
-1534 -1565 0
-1534 -1566 0
-1534 -1567 0
-1534 -1568 0
-1534 -1569 0
-1534 -1570 0
-1534 -1571 0
-1534 -1572 0
-1534 -1573 0
-1534 -1574 0
-1534 -1575 0
-1534 -1576 0
-1534 -1577 0
-1534 -1578 0
-1535 -1536 0
-1535 -1537 0
-1535 -1538 0
-1535 -1539 0
-1535 -1540 0
-1535 -1541 0
-1535 -1542 0
-1535 -1543 0
-1535 -1544 0
-1535 -1545 0
-1535 -1546 0
-1535 -1547 0
-1535 -1548 0
-1535 -1549 0
-1535 -1550 0
-1535 -1551 0
-1535 -1552 0
-1535 -1553 0
-1535 -1554 0
-1535 -1555 0
-1535 -1556 0
-1535 -1557 0
-1535 -1558 0
-1535 -1559 0
-1535 -1560 0
-1535 -1561 0
-1535 -1562 0
-1535 -1563 0
-1535 -1564 0
-1535 -1565 0
-1535 -1566 0
-1535 -1567 0
-1535 -1568 0
-1535 -1569 0
-1535 -1570 0
-1535 -1571 0
-1535 -1572 0
-1535 -1573 0
-1535 -1574 0
-1535 -1575 0
-1535 -1576 0
-1535 -1577 0
-1535 -1578 0
-1536 -1537 0
-1536 -1538 0
-1536 -1539 0
-1536 -1540 0
-1536 -1541 0
-1536 -1542 0
-1536 -1543 0
-1536 -1544 0
-1536 -1545 0
-1536 -1546 0
-1536 -1547 0
-1536 -1548 0
-1536 -1549 0
-1536 -1550 0
-1536 -1551 0
-1536 -1552 0
-1536 -1553 0
-1536 -1554 0
-1536 -1555 0
-1536 -1556 0
-1536 -1557 0
-1536 -1558 0
-1536 -1559 0
-1536 -1560 0
-1536 -1561 0
-1536 -1562 0
-1536 -1563 0
-1536 -1564 0
-1536 -1565 0
-1536 -1566 0
-1536 -1567 0
-1536 -1568 0
-1536 -1569 0
-1536 -1570 0
-1536 -1571 0
-1536 -1572 0
-1536 -1573 0
-1536 -1574 0
-1536 -1575 0
-1536 -1576 0
-1536 -1577 0
-1536 -1578 0
-1537 -1538 0
-1537 -1539 0
-1537 -1540 0
-1537 -1541 0
-1537 -1542 0
-1537 -1543 0
-1537 -1544 0
-1537 -1545 0
-1537 -1546 0
-1537 -1547 0
-1537 -1548 0
-1537 -1549 0
-1537 -1550 0
-1537 -1551 0
-1537 -1552 0
-1537 -1553 0
-1537 -1554 0
-1537 -1555 0
-1537 -1556 0
-1537 -1557 0
-1537 -1558 0
-1537 -1559 0
-1537 -1560 0
-1537 -1561 0
-1537 -1562 0
-1537 -1563 0
-1537 -1564 0
-1537 -1565 0
-1537 -1566 0
-1537 -1567 0
-1537 -1568 0
-1537 -1569 0
-1537 -1570 0
-1537 -1571 0
-1537 -1572 0
-1537 -1573 0
-1537 -1574 0
-1537 -1575 0
-1537 -1576 0
-1537 -1577 0
-1537 -1578 0
-1538 -1539 0
-1538 -1540 0
-1538 -1541 0
-1538 -1542 0
-1538 -1543 0
-1538 -1544 0
-1538 -1545 0
-1538 -1546 0
-1538 -1547 0
-1538 -1548 0
-1538 -1549 0
-1538 -1550 0
-1538 -1551 0
-1538 -1552 0
-1538 -1553 0
-1538 -1554 0
-1538 -1555 0
-1538 -1556 0
-1538 -1557 0
-1538 -1558 0
-1538 -1559 0
-1538 -1560 0
-1538 -1561 0
-1538 -1562 0
-1538 -1563 0
-1538 -1564 0
-1538 -1565 0
-1538 -1566 0
-1538 -1567 0
-1538 -1568 0
-1538 -1569 0
-1538 -1570 0
-1538 -1571 0
-1538 -1572 0
-1538 -1573 0
-1538 -1574 0
-1538 -1575 0
-1538 -1576 0
-1538 -1577 0
-1538 -1578 0
-1539 -1540 0
-1539 -1541 0
-1539 -1542 0
-1539 -1543 0
-1539 -1544 0
-1539 -1545 0
-1539 -1546 0
-1539 -1547 0
-1539 -1548 0
-1539 -1549 0
-1539 -1550 0
-1539 -1551 0
-1539 -1552 0
-1539 -1553 0
-1539 -1554 0
-1539 -1555 0
-1539 -1556 0
-1539 -1557 0
-1539 -1558 0
-1539 -1559 0
-1539 -1560 0
-1539 -1561 0
-1539 -1562 0
-1539 -1563 0
-1539 -1564 0
-1539 -1565 0
-1539 -1566 0
-1539 -1567 0
-1539 -1568 0
-1539 -1569 0
-1539 -1570 0
-1539 -1571 0
-1539 -1572 0
-1539 -1573 0
-1539 -1574 0
-1539 -1575 0
-1539 -1576 0
-1539 -1577 0
-1539 -1578 0
-1540 -1541 0
-1540 -1542 0
-1540 -1543 0
-1540 -1544 0
-1540 -1545 0
-1540 -1546 0
-1540 -1547 0
-1540 -1548 0
-1540 -1549 0
-1540 -1550 0
-1540 -1551 0
-1540 -1552 0
-1540 -1553 0
-1540 -1554 0
-1540 -1555 0
-1540 -1556 0
-1540 -1557 0
-1540 -1558 0
-1540 -1559 0
-1540 -1560 0
-1540 -1561 0
-1540 -1562 0
-1540 -1563 0
-1540 -1564 0
-1540 -1565 0
-1540 -1566 0
-1540 -1567 0
-1540 -1568 0
-1540 -1569 0
-1540 -1570 0
-1540 -1571 0
-1540 -1572 0
-1540 -1573 0
-1540 -1574 0
-1540 -1575 0
-1540 -1576 0
-1540 -1577 0
-1540 -1578 0
-1541 -1542 0
-1541 -1543 0
-1541 -1544 0
-1541 -1545 0
-1541 -1546 0
-1541 -1547 0
-1541 -1548 0
-1541 -1549 0
-1541 -1550 0
-1541 -1551 0
-1541 -1552 0
-1541 -1553 0
-1541 -1554 0
-1541 -1555 0
-1541 -1556 0
-1541 -1557 0
-1541 -1558 0
-1541 -1559 0
-1541 -1560 0
-1541 -1561 0
-1541 -1562 0
-1541 -1563 0
-1541 -1564 0
-1541 -1565 0
-1541 -1566 0
-1541 -1567 0
-1541 -1568 0
-1541 -1569 0
-1541 -1570 0
-1541 -1571 0
-1541 -1572 0
-1541 -1573 0
-1541 -1574 0
-1541 -1575 0
-1541 -1576 0
-1541 -1577 0
-1541 -1578 0
-1542 -1543 0
-1542 -1544 0
-1542 -1545 0
-1542 -1546 0
-1542 -1547 0
-1542 -1548 0
-1542 -1549 0
-1542 -1550 0
-1542 -1551 0
-1542 -1552 0
-1542 -1553 0
-1542 -1554 0
-1542 -1555 0
-1542 -1556 0
-1542 -1557 0
-1542 -1558 0
-1542 -1559 0
-1542 -1560 0
-1542 -1561 0
-1542 -1562 0
-1542 -1563 0
-1542 -1564 0
-1542 -1565 0
-1542 -1566 0
-1542 -1567 0
-1542 -1568 0
-1542 -1569 0
-1542 -1570 0
-1542 -1571 0
-1542 -1572 0
-1542 -1573 0
-1542 -1574 0
-1542 -1575 0
-1542 -1576 0
-1542 -1577 0
-1542 -1578 0
-1543 -1544 0
-1543 -1545 0
-1543 -1546 0
-1543 -1547 0
-1543 -1548 0
-1543 -1549 0
-1543 -1550 0
-1543 -1551 0
-1543 -1552 0
-1543 -1553 0
-1543 -1554 0
-1543 -1555 0
-1543 -1556 0
-1543 -1557 0
-1543 -1558 0
-1543 -1559 0
-1543 -1560 0
-1543 -1561 0
-1543 -1562 0
-1543 -1563 0
-1543 -1564 0
-1543 -1565 0
-1543 -1566 0
-1543 -1567 0
-1543 -1568 0
-1543 -1569 0
-1543 -1570 0
-1543 -1571 0
-1543 -1572 0
-1543 -1573 0
-1543 -1574 0
-1543 -1575 0
-1543 -1576 0
-1543 -1577 0
-1543 -1578 0
-1544 -1545 0
-1544 -1546 0
-1544 -1547 0
-1544 -1548 0
-1544 -1549 0
-1544 -1550 0
-1544 -1551 0
-1544 -1552 0
-1544 -1553 0
-1544 -1554 0
-1544 -1555 0
-1544 -1556 0
-1544 -1557 0
-1544 -1558 0
-1544 -1559 0
-1544 -1560 0
-1544 -1561 0
-1544 -1562 0
-1544 -1563 0
-1544 -1564 0
-1544 -1565 0
-1544 -1566 0
-1544 -1567 0
-1544 -1568 0
-1544 -1569 0
-1544 -1570 0
-1544 -1571 0
-1544 -1572 0
-1544 -1573 0
-1544 -1574 0
-1544 -1575 0
-1544 -1576 0
-1544 -1577 0
-1544 -1578 0
-1545 -1546 0
-1545 -1547 0
-1545 -1548 0
-1545 -1549 0
-1545 -1550 0
-1545 -1551 0
-1545 -1552 0
-1545 -1553 0
-1545 -1554 0
-1545 -1555 0
-1545 -1556 0
-1545 -1557 0
-1545 -1558 0
-1545 -1559 0
-1545 -1560 0
-1545 -1561 0
-1545 -1562 0
-1545 -1563 0
-1545 -1564 0
-1545 -1565 0
-1545 -1566 0
-1545 -1567 0
-1545 -1568 0
-1545 -1569 0
-1545 -1570 0
-1545 -1571 0
-1545 -1572 0
-1545 -1573 0
-1545 -1574 0
-1545 -1575 0
-1545 -1576 0
-1545 -1577 0
-1545 -1578 0
-1546 -1547 0
-1546 -1548 0
-1546 -1549 0
-1546 -1550 0
-1546 -1551 0
-1546 -1552 0
-1546 -1553 0
-1546 -1554 0
-1546 -1555 0
-1546 -1556 0
-1546 -1557 0
-1546 -1558 0
-1546 -1559 0
-1546 -1560 0
-1546 -1561 0
-1546 -1562 0
-1546 -1563 0
-1546 -1564 0
-1546 -1565 0
-1546 -1566 0
-1546 -1567 0
-1546 -1568 0
-1546 -1569 0
-1546 -1570 0
-1546 -1571 0
-1546 -1572 0
-1546 -1573 0
-1546 -1574 0
-1546 -1575 0
-1546 -1576 0
-1546 -1577 0
-1546 -1578 0
-1547 -1548 0
-1547 -1549 0
-1547 -1550 0
-1547 -1551 0
-1547 -1552 0
-1547 -1553 0
-1547 -1554 0
-1547 -1555 0
-1547 -1556 0
-1547 -1557 0
-1547 -1558 0
-1547 -1559 0
-1547 -1560 0
-1547 -1561 0
-1547 -1562 0
-1547 -1563 0
-1547 -1564 0
-1547 -1565 0
-1547 -1566 0
-1547 -1567 0
-1547 -1568 0
-1547 -1569 0
-1547 -1570 0
-1547 -1571 0
-1547 -1572 0
-1547 -1573 0
-1547 -1574 0
-1547 -1575 0
-1547 -1576 0
-1547 -1577 0
-1547 -1578 0
-1548 -1549 0
-1548 -1550 0
-1548 -1551 0
-1548 -1552 0
-1548 -1553 0
-1548 -1554 0
-1548 -1555 0
-1548 -1556 0
-1548 -1557 0
-1548 -1558 0
-1548 -1559 0
-1548 -1560 0
-1548 -1561 0
-1548 -1562 0
-1548 -1563 0
-1548 -1564 0
-1548 -1565 0
-1548 -1566 0
-1548 -1567 0
-1548 -1568 0
-1548 -1569 0
-1548 -1570 0
-1548 -1571 0
-1548 -1572 0
-1548 -1573 0
-1548 -1574 0
-1548 -1575 0
-1548 -1576 0
-1548 -1577 0
-1548 -1578 0
-1549 -1550 0
-1549 -1551 0
-1549 -1552 0
-1549 -1553 0
-1549 -1554 0
-1549 -1555 0
-1549 -1556 0
-1549 -1557 0
-1549 -1558 0
-1549 -1559 0
-1549 -1560 0
-1549 -1561 0
-1549 -1562 0
-1549 -1563 0
-1549 -1564 0
-1549 -1565 0
-1549 -1566 0
-1549 -1567 0
-1549 -1568 0
-1549 -1569 0
-1549 -1570 0
-1549 -1571 0
-1549 -1572 0
-1549 -1573 0
-1549 -1574 0
-1549 -1575 0
-1549 -1576 0
-1549 -1577 0
-1549 -1578 0
-1550 -1551 0
-1550 -1552 0
-1550 -1553 0
-1550 -1554 0
-1550 -1555 0
-1550 -1556 0
-1550 -1557 0
-1550 -1558 0
-1550 -1559 0
-1550 -1560 0
-1550 -1561 0
-1550 -1562 0
-1550 -1563 0
-1550 -1564 0
-1550 -1565 0
-1550 -1566 0
-1550 -1567 0
-1550 -1568 0
-1550 -1569 0
-1550 -1570 0
-1550 -1571 0
-1550 -1572 0
-1550 -1573 0
-1550 -1574 0
-1550 -1575 0
-1550 -1576 0
-1550 -1577 0
-1550 -1578 0
-1551 -1552 0
-1551 -1553 0
-1551 -1554 0
-1551 -1555 0
-1551 -1556 0
-1551 -1557 0
-1551 -1558 0
-1551 -1559 0
-1551 -1560 0
-1551 -1561 0
-1551 -1562 0
-1551 -1563 0
-1551 -1564 0
-1551 -1565 0
-1551 -1566 0
-1551 -1567 0
-1551 -1568 0
-1551 -1569 0
-1551 -1570 0
-1551 -1571 0
-1551 -1572 0
-1551 -1573 0
-1551 -1574 0
-1551 -1575 0
-1551 -1576 0
-1551 -1577 0
-1551 -1578 0
-1552 -1553 0
-1552 -1554 0
-1552 -1555 0
-1552 -1556 0
-1552 -1557 0
-1552 -1558 0
-1552 -1559 0
-1552 -1560 0
-1552 -1561 0
-1552 -1562 0
-1552 -1563 0
-1552 -1564 0
-1552 -1565 0
-1552 -1566 0
-1552 -1567 0
-1552 -1568 0
-1552 -1569 0
-1552 -1570 0
-1552 -1571 0
-1552 -1572 0
-1552 -1573 0
-1552 -1574 0
-1552 -1575 0
-1552 -1576 0
-1552 -1577 0
-1552 -1578 0
-1553 -1554 0
-1553 -1555 0
-1553 -1556 0
-1553 -1557 0
-1553 -1558 0
-1553 -1559 0
-1553 -1560 0
-1553 -1561 0
-1553 -1562 0
-1553 -1563 0
-1553 -1564 0
-1553 -1565 0
-1553 -1566 0
-1553 -1567 0
-1553 -1568 0
-1553 -1569 0
-1553 -1570 0
-1553 -1571 0
-1553 -1572 0
-1553 -1573 0
-1553 -1574 0
-1553 -1575 0
-1553 -1576 0
-1553 -1577 0
-1553 -1578 0
-1554 -1555 0
-1554 -1556 0
-1554 -1557 0
-1554 -1558 0
-1554 -1559 0
-1554 -1560 0
-1554 -1561 0
-1554 -1562 0
-1554 -1563 0
-1554 -1564 0
-1554 -1565 0
-1554 -1566 0
-1554 -1567 0
-1554 -1568 0
-1554 -1569 0
-1554 -1570 0
-1554 -1571 0
-1554 -1572 0
-1554 -1573 0
-1554 -1574 0
-1554 -1575 0
-1554 -1576 0
-1554 -1577 0
-1554 -1578 0
-1555 -1556 0
-1555 -1557 0
-1555 -1558 0
-1555 -1559 0
-1555 -1560 0
-1555 -1561 0
-1555 -1562 0
-1555 -1563 0
-1555 -1564 0
-1555 -1565 0
-1555 -1566 0
-1555 -1567 0
-1555 -1568 0
-1555 -1569 0
-1555 -1570 0
-1555 -1571 0
-1555 -1572 0
-1555 -1573 0
-1555 -1574 0
-1555 -1575 0
-1555 -1576 0
-1555 -1577 0
-1555 -1578 0
-1556 -1557 0
-1556 -1558 0
-1556 -1559 0
-1556 -1560 0
-1556 -1561 0
-1556 -1562 0
-1556 -1563 0
-1556 -1564 0
-1556 -1565 0
-1556 -1566 0
-1556 -1567 0
-1556 -1568 0
-1556 -1569 0
-1556 -1570 0
-1556 -1571 0
-1556 -1572 0
-1556 -1573 0
-1556 -1574 0
-1556 -1575 0
-1556 -1576 0
-1556 -1577 0
-1556 -1578 0
-1557 -1558 0
-1557 -1559 0
-1557 -1560 0
-1557 -1561 0
-1557 -1562 0
-1557 -1563 0
-1557 -1564 0
-1557 -1565 0
-1557 -1566 0
-1557 -1567 0
-1557 -1568 0
-1557 -1569 0
-1557 -1570 0
-1557 -1571 0
-1557 -1572 0
-1557 -1573 0
-1557 -1574 0
-1557 -1575 0
-1557 -1576 0
-1557 -1577 0
-1557 -1578 0
-1558 -1559 0
-1558 -1560 0
-1558 -1561 0
-1558 -1562 0
-1558 -1563 0
-1558 -1564 0
-1558 -1565 0
-1558 -1566 0
-1558 -1567 0
-1558 -1568 0
-1558 -1569 0
-1558 -1570 0
-1558 -1571 0
-1558 -1572 0
-1558 -1573 0
-1558 -1574 0
-1558 -1575 0
-1558 -1576 0
-1558 -1577 0
-1558 -1578 0
-1559 -1560 0
-1559 -1561 0
-1559 -1562 0
-1559 -1563 0
-1559 -1564 0
-1559 -1565 0
-1559 -1566 0
-1559 -1567 0
-1559 -1568 0
-1559 -1569 0
-1559 -1570 0
-1559 -1571 0
-1559 -1572 0
-1559 -1573 0
-1559 -1574 0
-1559 -1575 0
-1559 -1576 0
-1559 -1577 0
-1559 -1578 0
-1560 -1561 0
-1560 -1562 0
-1560 -1563 0
-1560 -1564 0
-1560 -1565 0
-1560 -1566 0
-1560 -1567 0
-1560 -1568 0
-1560 -1569 0
-1560 -1570 0
-1560 -1571 0
-1560 -1572 0
-1560 -1573 0
-1560 -1574 0
-1560 -1575 0
-1560 -1576 0
-1560 -1577 0
-1560 -1578 0
-1561 -1562 0
-1561 -1563 0
-1561 -1564 0
-1561 -1565 0
-1561 -1566 0
-1561 -1567 0
-1561 -1568 0
-1561 -1569 0
-1561 -1570 0
-1561 -1571 0
-1561 -1572 0
-1561 -1573 0
-1561 -1574 0
-1561 -1575 0
-1561 -1576 0
-1561 -1577 0
-1561 -1578 0
-1562 -1563 0
-1562 -1564 0
-1562 -1565 0
-1562 -1566 0
-1562 -1567 0
-1562 -1568 0
-1562 -1569 0
-1562 -1570 0
-1562 -1571 0
-1562 -1572 0
-1562 -1573 0
-1562 -1574 0
-1562 -1575 0
-1562 -1576 0
-1562 -1577 0
-1562 -1578 0
-1563 -1564 0
-1563 -1565 0
-1563 -1566 0
-1563 -1567 0
-1563 -1568 0
-1563 -1569 0
-1563 -1570 0
-1563 -1571 0
-1563 -1572 0
-1563 -1573 0
-1563 -1574 0
-1563 -1575 0
-1563 -1576 0
-1563 -1577 0
-1563 -1578 0
-1564 -1565 0
-1564 -1566 0
-1564 -1567 0
-1564 -1568 0
-1564 -1569 0
-1564 -1570 0
-1564 -1571 0
-1564 -1572 0
-1564 -1573 0
-1564 -1574 0
-1564 -1575 0
-1564 -1576 0
-1564 -1577 0
-1564 -1578 0
-1565 -1566 0
-1565 -1567 0
-1565 -1568 0
-1565 -1569 0
-1565 -1570 0
-1565 -1571 0
-1565 -1572 0
-1565 -1573 0
-1565 -1574 0
-1565 -1575 0
-1565 -1576 0
-1565 -1577 0
-1565 -1578 0
-1566 -1567 0
-1566 -1568 0
-1566 -1569 0
-1566 -1570 0
-1566 -1571 0
-1566 -1572 0
-1566 -1573 0
-1566 -1574 0
-1566 -1575 0
-1566 -1576 0
-1566 -1577 0
-1566 -1578 0
-1567 -1568 0
-1567 -1569 0
-1567 -1570 0
-1567 -1571 0
-1567 -1572 0
-1567 -1573 0
-1567 -1574 0
-1567 -1575 0
-1567 -1576 0
-1567 -1577 0
-1567 -1578 0
-1568 -1569 0
-1568 -1570 0
-1568 -1571 0
-1568 -1572 0
-1568 -1573 0
-1568 -1574 0
-1568 -1575 0
-1568 -1576 0
-1568 -1577 0
-1568 -1578 0
-1569 -1570 0
-1569 -1571 0
-1569 -1572 0
-1569 -1573 0
-1569 -1574 0
-1569 -1575 0
-1569 -1576 0
-1569 -1577 0
-1569 -1578 0
-1570 -1571 0
-1570 -1572 0
-1570 -1573 0
-1570 -1574 0
-1570 -1575 0
-1570 -1576 0
-1570 -1577 0
-1570 -1578 0
-1571 -1572 0
-1571 -1573 0
-1571 -1574 0
-1571 -1575 0
-1571 -1576 0
-1571 -1577 0
-1571 -1578 0
-1572 -1573 0
-1572 -1574 0
-1572 -1575 0
-1572 -1576 0
-1572 -1577 0
-1572 -1578 0
-1573 -1574 0
-1573 -1575 0
-1573 -1576 0
-1573 -1577 0
-1573 -1578 0
-1574 -1575 0
-1574 -1576 0
-1574 -1577 0
-1574 -1578 0
-1575 -1576 0
-1575 -1577 0
-1575 -1578 0
-1576 -1577 0
-1576 -1578 0
-1577 -1578 0
1579 1580 1581 1582 1583 1584 1585 1586 1587 1588 1589 1590 1591 1592 1593 1594 1595 1596 1597 1598 1599 1600 1601 1602 1603 1604 1605 1606 1607 1608 1609 1610 1611 1612 1613 1614 1615 1616 1617 1618 1619 1620 1621 1622 1623 1624 1625 1626 1627 1628 1629 1630 1631 1632 1633 1634 1635 1636 1637 1638 1639 1640 1641 1642 1643 1644 1645 1646 1647 1648 1649 1650 1651 1652 1653 1654 1655 1656 1657 1658 1659 1660 1661 1662 0
-1579 -1580 0
-1579 -1581 0
-1579 -1582 0
-1579 -1583 0
-1579 -1584 0
-1579 -1585 0
-1579 -1586 0
-1579 -1587 0
-1579 -1588 0
-1579 -1589 0
-1579 -1590 0
-1579 -1591 0
-1579 -1592 0
-1579 -1593 0
-1579 -1594 0
-1579 -1595 0
-1579 -1596 0
-1579 -1597 0
-1579 -1598 0
-1579 -1599 0
-1579 -1600 0
-1579 -1601 0
-1579 -1602 0
-1579 -1603 0
-1579 -1604 0
-1579 -1605 0
-1579 -1606 0
-1579 -1607 0
-1579 -1608 0
-1579 -1609 0
-1579 -1610 0
-1579 -1611 0
-1579 -1612 0
-1579 -1613 0
-1579 -1614 0
-1579 -1615 0
-1579 -1616 0
-1579 -1617 0
-1579 -1618 0
-1579 -1619 0
-1579 -1620 0
-1579 -1621 0
-1579 -1622 0
-1579 -1623 0
-1579 -1624 0
-1579 -1625 0
-1579 -1626 0
-1579 -1627 0
-1579 -1628 0
-1579 -1629 0
-1579 -1630 0
-1579 -1631 0
-1579 -1632 0
-1579 -1633 0
-1579 -1634 0
-1579 -1635 0
-1579 -1636 0
-1579 -1637 0
-1579 -1638 0
-1579 -1639 0
-1579 -1640 0
-1579 -1641 0
-1579 -1642 0
-1579 -1643 0
-1579 -1644 0
-1579 -1645 0
-1579 -1646 0
-1579 -1647 0
-1579 -1648 0
-1579 -1649 0
-1579 -1650 0
-1579 -1651 0
-1579 -1652 0
-1579 -1653 0
-1579 -1654 0
-1579 -1655 0
-1579 -1656 0
-1579 -1657 0
-1579 -1658 0
-1579 -1659 0
-1579 -1660 0
-1579 -1661 0
-1579 -1662 0
-1580 -1581 0
-1580 -1582 0
-1580 -1583 0
-1580 -1584 0
-1580 -1585 0
-1580 -1586 0
-1580 -1587 0
-1580 -1588 0
-1580 -1589 0
-1580 -1590 0
-1580 -1591 0
-1580 -1592 0
-1580 -1593 0
-1580 -1594 0
-1580 -1595 0
-1580 -1596 0
-1580 -1597 0
-1580 -1598 0
-1580 -1599 0
-1580 -1600 0
-1580 -1601 0
-1580 -1602 0
-1580 -1603 0
-1580 -1604 0
-1580 -1605 0
-1580 -1606 0
-1580 -1607 0
-1580 -1608 0
-1580 -1609 0
-1580 -1610 0
-1580 -1611 0
-1580 -1612 0
-1580 -1613 0
-1580 -1614 0
-1580 -1615 0
-1580 -1616 0
-1580 -1617 0
-1580 -1618 0
-1580 -1619 0
-1580 -1620 0
-1580 -1621 0
-1580 -1622 0
-1580 -1623 0
-1580 -1624 0
-1580 -1625 0
-1580 -1626 0
-1580 -1627 0
-1580 -1628 0
-1580 -1629 0
-1580 -1630 0
-1580 -1631 0
-1580 -1632 0
-1580 -1633 0
-1580 -1634 0
-1580 -1635 0
-1580 -1636 0
-1580 -1637 0
-1580 -1638 0
-1580 -1639 0
-1580 -1640 0
-1580 -1641 0
-1580 -1642 0
-1580 -1643 0
-1580 -1644 0
-1580 -1645 0
-1580 -1646 0
-1580 -1647 0
-1580 -1648 0
-1580 -1649 0
-1580 -1650 0
-1580 -1651 0
-1580 -1652 0
-1580 -1653 0
-1580 -1654 0
-1580 -1655 0
-1580 -1656 0
-1580 -1657 0
-1580 -1658 0
-1580 -1659 0
-1580 -1660 0
-1580 -1661 0
-1580 -1662 0
-1581 -1582 0
-1581 -1583 0
-1581 -1584 0
-1581 -1585 0
-1581 -1586 0
-1581 -1587 0
-1581 -1588 0
-1581 -1589 0
-1581 -1590 0
-1581 -1591 0
-1581 -1592 0
-1581 -1593 0
-1581 -1594 0
-1581 -1595 0
-1581 -1596 0
-1581 -1597 0
-1581 -1598 0
-1581 -1599 0
-1581 -1600 0
-1581 -1601 0
-1581 -1602 0
-1581 -1603 0
-1581 -1604 0
-1581 -1605 0
-1581 -1606 0
-1581 -1607 0
-1581 -1608 0
-1581 -1609 0
-1581 -1610 0
-1581 -1611 0
-1581 -1612 0
-1581 -1613 0
-1581 -1614 0
-1581 -1615 0
-1581 -1616 0
-1581 -1617 0
-1581 -1618 0
-1581 -1619 0
-1581 -1620 0
-1581 -1621 0
-1581 -1622 0
-1581 -1623 0
-1581 -1624 0
-1581 -1625 0
-1581 -1626 0
-1581 -1627 0
-1581 -1628 0
-1581 -1629 0
-1581 -1630 0
-1581 -1631 0
-1581 -1632 0
-1581 -1633 0
-1581 -1634 0
-1581 -1635 0
-1581 -1636 0
-1581 -1637 0
-1581 -1638 0
-1581 -1639 0
-1581 -1640 0
-1581 -1641 0
-1581 -1642 0
-1581 -1643 0
-1581 -1644 0
-1581 -1645 0
-1581 -1646 0
-1581 -1647 0
-1581 -1648 0
-1581 -1649 0
-1581 -1650 0
-1581 -1651 0
-1581 -1652 0
-1581 -1653 0
-1581 -1654 0
-1581 -1655 0
-1581 -1656 0
-1581 -1657 0
-1581 -1658 0
-1581 -1659 0
-1581 -1660 0
-1581 -1661 0
-1581 -1662 0
-1582 -1583 0
-1582 -1584 0
-1582 -1585 0
-1582 -1586 0
-1582 -1587 0
-1582 -1588 0
-1582 -1589 0
-1582 -1590 0
-1582 -1591 0
-1582 -1592 0
-1582 -1593 0
-1582 -1594 0
-1582 -1595 0
-1582 -1596 0
-1582 -1597 0
-1582 -1598 0
-1582 -1599 0
-1582 -1600 0
-1582 -1601 0
-1582 -1602 0
-1582 -1603 0
-1582 -1604 0
-1582 -1605 0
-1582 -1606 0
-1582 -1607 0
-1582 -1608 0
-1582 -1609 0
-1582 -1610 0
-1582 -1611 0
-1582 -1612 0
-1582 -1613 0
-1582 -1614 0
-1582 -1615 0
-1582 -1616 0
-1582 -1617 0
-1582 -1618 0
-1582 -1619 0
-1582 -1620 0
-1582 -1621 0
-1582 -1622 0
-1582 -1623 0
-1582 -1624 0
-1582 -1625 0
-1582 -1626 0
-1582 -1627 0
-1582 -1628 0
-1582 -1629 0
-1582 -1630 0
-1582 -1631 0
-1582 -1632 0
-1582 -1633 0
-1582 -1634 0
-1582 -1635 0
-1582 -1636 0
-1582 -1637 0
-1582 -1638 0
-1582 -1639 0
-1582 -1640 0
-1582 -1641 0
-1582 -1642 0
-1582 -1643 0
-1582 -1644 0
-1582 -1645 0
-1582 -1646 0
-1582 -1647 0
-1582 -1648 0
-1582 -1649 0
-1582 -1650 0
-1582 -1651 0
-1582 -1652 0
-1582 -1653 0
-1582 -1654 0
-1582 -1655 0
-1582 -1656 0
-1582 -1657 0
-1582 -1658 0
-1582 -1659 0
-1582 -1660 0
-1582 -1661 0
-1582 -1662 0
-1583 -1584 0
-1583 -1585 0
-1583 -1586 0
-1583 -1587 0
-1583 -1588 0
-1583 -1589 0
-1583 -1590 0
-1583 -1591 0
-1583 -1592 0
-1583 -1593 0
-1583 -1594 0
-1583 -1595 0
-1583 -1596 0
-1583 -1597 0
-1583 -1598 0
-1583 -1599 0
-1583 -1600 0
-1583 -1601 0
-1583 -1602 0
-1583 -1603 0
-1583 -1604 0
-1583 -1605 0
-1583 -1606 0
-1583 -1607 0
-1583 -1608 0
-1583 -1609 0
-1583 -1610 0
-1583 -1611 0
-1583 -1612 0
-1583 -1613 0
-1583 -1614 0
-1583 -1615 0
-1583 -1616 0
-1583 -1617 0
-1583 -1618 0
-1583 -1619 0
-1583 -1620 0
-1583 -1621 0
-1583 -1622 0
-1583 -1623 0
-1583 -1624 0
-1583 -1625 0
-1583 -1626 0
-1583 -1627 0
-1583 -1628 0
-1583 -1629 0
-1583 -1630 0
-1583 -1631 0
-1583 -1632 0
-1583 -1633 0
-1583 -1634 0
-1583 -1635 0
-1583 -1636 0
-1583 -1637 0
-1583 -1638 0
-1583 -1639 0
-1583 -1640 0
-1583 -1641 0
-1583 -1642 0
-1583 -1643 0
-1583 -1644 0
-1583 -1645 0
-1583 -1646 0
-1583 -1647 0
-1583 -1648 0
-1583 -1649 0
-1583 -1650 0
-1583 -1651 0
-1583 -1652 0
-1583 -1653 0
-1583 -1654 0
-1583 -1655 0
-1583 -1656 0
-1583 -1657 0
-1583 -1658 0
-1583 -1659 0
-1583 -1660 0
-1583 -1661 0
-1583 -1662 0
-1584 -1585 0
-1584 -1586 0
-1584 -1587 0
-1584 -1588 0
-1584 -1589 0
-1584 -1590 0
-1584 -1591 0
-1584 -1592 0
-1584 -1593 0
-1584 -1594 0
-1584 -1595 0
-1584 -1596 0
-1584 -1597 0
-1584 -1598 0
-1584 -1599 0
-1584 -1600 0
-1584 -1601 0
-1584 -1602 0
-1584 -1603 0
-1584 -1604 0
-1584 -1605 0
-1584 -1606 0
-1584 -1607 0
-1584 -1608 0
-1584 -1609 0
-1584 -1610 0
-1584 -1611 0
-1584 -1612 0
-1584 -1613 0
-1584 -1614 0
-1584 -1615 0
-1584 -1616 0
-1584 -1617 0
-1584 -1618 0
-1584 -1619 0
-1584 -1620 0
-1584 -1621 0
-1584 -1622 0
-1584 -1623 0
-1584 -1624 0
-1584 -1625 0
-1584 -1626 0
-1584 -1627 0
-1584 -1628 0
-1584 -1629 0
-1584 -1630 0
-1584 -1631 0
-1584 -1632 0
-1584 -1633 0
-1584 -1634 0
-1584 -1635 0
-1584 -1636 0
-1584 -1637 0
-1584 -1638 0
-1584 -1639 0
-1584 -1640 0
-1584 -1641 0
-1584 -1642 0
-1584 -1643 0
-1584 -1644 0
-1584 -1645 0
-1584 -1646 0
-1584 -1647 0
-1584 -1648 0
-1584 -1649 0
-1584 -1650 0
-1584 -1651 0
-1584 -1652 0
-1584 -1653 0
-1584 -1654 0
-1584 -1655 0
-1584 -1656 0
-1584 -1657 0
-1584 -1658 0
-1584 -1659 0
-1584 -1660 0
-1584 -1661 0
-1584 -1662 0
-1585 -1586 0
-1585 -1587 0
-1585 -1588 0
-1585 -1589 0
-1585 -1590 0
-1585 -1591 0
-1585 -1592 0
-1585 -1593 0
-1585 -1594 0
-1585 -1595 0
-1585 -1596 0
-1585 -1597 0
-1585 -1598 0
-1585 -1599 0
-1585 -1600 0
-1585 -1601 0
-1585 -1602 0
-1585 -1603 0
-1585 -1604 0
-1585 -1605 0
-1585 -1606 0
-1585 -1607 0
-1585 -1608 0
-1585 -1609 0
-1585 -1610 0
-1585 -1611 0
-1585 -1612 0
-1585 -1613 0
-1585 -1614 0
-1585 -1615 0
-1585 -1616 0
-1585 -1617 0
-1585 -1618 0
-1585 -1619 0
-1585 -1620 0
-1585 -1621 0
-1585 -1622 0
-1585 -1623 0
-1585 -1624 0
-1585 -1625 0
-1585 -1626 0
-1585 -1627 0
-1585 -1628 0
-1585 -1629 0
-1585 -1630 0
-1585 -1631 0
-1585 -1632 0
-1585 -1633 0
-1585 -1634 0
-1585 -1635 0
-1585 -1636 0
-1585 -1637 0
-1585 -1638 0
-1585 -1639 0
-1585 -1640 0
-1585 -1641 0
-1585 -1642 0
-1585 -1643 0
-1585 -1644 0
-1585 -1645 0
-1585 -1646 0
-1585 -1647 0
-1585 -1648 0
-1585 -1649 0
-1585 -1650 0
-1585 -1651 0
-1585 -1652 0
-1585 -1653 0
-1585 -1654 0
-1585 -1655 0
-1585 -1656 0
-1585 -1657 0
-1585 -1658 0
-1585 -1659 0
-1585 -1660 0
-1585 -1661 0
-1585 -1662 0
-1586 -1587 0
-1586 -1588 0
-1586 -1589 0
-1586 -1590 0
-1586 -1591 0
-1586 -1592 0
-1586 -1593 0
-1586 -1594 0
-1586 -1595 0
-1586 -1596 0
-1586 -1597 0
-1586 -1598 0
-1586 -1599 0
-1586 -1600 0
-1586 -1601 0
-1586 -1602 0
-1586 -1603 0
-1586 -1604 0
-1586 -1605 0
-1586 -1606 0
-1586 -1607 0
-1586 -1608 0
-1586 -1609 0
-1586 -1610 0
-1586 -1611 0
-1586 -1612 0
-1586 -1613 0
-1586 -1614 0
-1586 -1615 0
-1586 -1616 0
-1586 -1617 0
-1586 -1618 0
-1586 -1619 0
-1586 -1620 0
-1586 -1621 0
-1586 -1622 0
-1586 -1623 0
-1586 -1624 0
-1586 -1625 0
-1586 -1626 0
-1586 -1627 0
-1586 -1628 0
-1586 -1629 0
-1586 -1630 0
-1586 -1631 0
-1586 -1632 0
-1586 -1633 0
-1586 -1634 0
-1586 -1635 0
-1586 -1636 0
-1586 -1637 0
-1586 -1638 0
-1586 -1639 0
-1586 -1640 0
-1586 -1641 0
-1586 -1642 0
-1586 -1643 0
-1586 -1644 0
-1586 -1645 0
-1586 -1646 0
-1586 -1647 0
-1586 -1648 0
-1586 -1649 0
-1586 -1650 0
-1586 -1651 0
-1586 -1652 0
-1586 -1653 0
-1586 -1654 0
-1586 -1655 0
-1586 -1656 0
-1586 -1657 0
-1586 -1658 0
-1586 -1659 0
-1586 -1660 0
-1586 -1661 0
-1586 -1662 0
-1587 -1588 0
-1587 -1589 0
-1587 -1590 0
-1587 -1591 0
-1587 -1592 0
-1587 -1593 0
-1587 -1594 0
-1587 -1595 0
-1587 -1596 0
-1587 -1597 0
-1587 -1598 0
-1587 -1599 0
-1587 -1600 0
-1587 -1601 0
-1587 -1602 0
-1587 -1603 0
-1587 -1604 0
-1587 -1605 0
-1587 -1606 0
-1587 -1607 0
-1587 -1608 0
-1587 -1609 0
-1587 -1610 0
-1587 -1611 0
-1587 -1612 0
-1587 -1613 0
-1587 -1614 0
-1587 -1615 0
-1587 -1616 0
-1587 -1617 0
-1587 -1618 0
-1587 -1619 0
-1587 -1620 0
-1587 -1621 0
-1587 -1622 0
-1587 -1623 0
-1587 -1624 0
-1587 -1625 0
-1587 -1626 0
-1587 -1627 0
-1587 -1628 0
-1587 -1629 0
-1587 -1630 0
-1587 -1631 0
-1587 -1632 0
-1587 -1633 0
-1587 -1634 0
-1587 -1635 0
-1587 -1636 0
-1587 -1637 0
-1587 -1638 0
-1587 -1639 0
-1587 -1640 0
-1587 -1641 0
-1587 -1642 0
-1587 -1643 0
-1587 -1644 0
-1587 -1645 0
-1587 -1646 0
-1587 -1647 0
-1587 -1648 0
-1587 -1649 0
-1587 -1650 0
-1587 -1651 0
-1587 -1652 0
-1587 -1653 0
-1587 -1654 0
-1587 -1655 0
-1587 -1656 0
-1587 -1657 0
-1587 -1658 0
-1587 -1659 0
-1587 -1660 0
-1587 -1661 0
-1587 -1662 0
-1588 -1589 0
-1588 -1590 0
-1588 -1591 0
-1588 -1592 0
-1588 -1593 0
-1588 -1594 0
-1588 -1595 0
-1588 -1596 0
-1588 -1597 0
-1588 -1598 0
-1588 -1599 0
-1588 -1600 0
-1588 -1601 0
-1588 -1602 0
-1588 -1603 0
-1588 -1604 0
-1588 -1605 0
-1588 -1606 0
-1588 -1607 0
-1588 -1608 0
-1588 -1609 0
-1588 -1610 0
-1588 -1611 0
-1588 -1612 0
-1588 -1613 0
-1588 -1614 0
-1588 -1615 0
-1588 -1616 0
-1588 -1617 0
-1588 -1618 0
-1588 -1619 0
-1588 -1620 0
-1588 -1621 0
-1588 -1622 0
-1588 -1623 0
-1588 -1624 0
-1588 -1625 0
-1588 -1626 0
-1588 -1627 0
-1588 -1628 0
-1588 -1629 0
-1588 -1630 0
-1588 -1631 0
-1588 -1632 0
-1588 -1633 0
-1588 -1634 0
-1588 -1635 0
-1588 -1636 0
-1588 -1637 0
-1588 -1638 0
-1588 -1639 0
-1588 -1640 0
-1588 -1641 0
-1588 -1642 0
-1588 -1643 0
-1588 -1644 0
-1588 -1645 0
-1588 -1646 0
-1588 -1647 0
-1588 -1648 0
-1588 -1649 0
-1588 -1650 0
-1588 -1651 0
-1588 -1652 0
-1588 -1653 0
-1588 -1654 0
-1588 -1655 0
-1588 -1656 0
-1588 -1657 0
-1588 -1658 0
-1588 -1659 0
-1588 -1660 0
-1588 -1661 0
-1588 -1662 0
-1589 -1590 0
-1589 -1591 0
-1589 -1592 0
-1589 -1593 0
-1589 -1594 0
-1589 -1595 0
-1589 -1596 0
-1589 -1597 0
-1589 -1598 0
-1589 -1599 0
-1589 -1600 0
-1589 -1601 0
-1589 -1602 0
-1589 -1603 0
-1589 -1604 0
-1589 -1605 0
-1589 -1606 0
-1589 -1607 0
-1589 -1608 0
-1589 -1609 0
-1589 -1610 0
-1589 -1611 0
-1589 -1612 0
-1589 -1613 0
-1589 -1614 0
-1589 -1615 0
-1589 -1616 0
-1589 -1617 0
-1589 -1618 0
-1589 -1619 0
-1589 -1620 0
-1589 -1621 0
-1589 -1622 0
-1589 -1623 0
-1589 -1624 0
-1589 -1625 0
-1589 -1626 0
-1589 -1627 0
-1589 -1628 0
-1589 -1629 0
-1589 -1630 0
-1589 -1631 0
-1589 -1632 0
-1589 -1633 0
-1589 -1634 0
-1589 -1635 0
-1589 -1636 0
-1589 -1637 0
-1589 -1638 0
-1589 -1639 0
-1589 -1640 0
-1589 -1641 0
-1589 -1642 0
-1589 -1643 0
-1589 -1644 0
-1589 -1645 0
-1589 -1646 0
-1589 -1647 0
-1589 -1648 0
-1589 -1649 0
-1589 -1650 0
-1589 -1651 0
-1589 -1652 0
-1589 -1653 0
-1589 -1654 0
-1589 -1655 0
-1589 -1656 0
-1589 -1657 0
-1589 -1658 0
-1589 -1659 0
-1589 -1660 0
-1589 -1661 0
-1589 -1662 0
-1590 -1591 0
-1590 -1592 0
-1590 -1593 0
-1590 -1594 0
-1590 -1595 0
-1590 -1596 0
-1590 -1597 0
-1590 -1598 0
-1590 -1599 0
-1590 -1600 0
-1590 -1601 0
-1590 -1602 0
-1590 -1603 0
-1590 -1604 0
-1590 -1605 0
-1590 -1606 0
-1590 -1607 0
-1590 -1608 0
-1590 -1609 0
-1590 -1610 0
-1590 -1611 0
-1590 -1612 0
-1590 -1613 0
-1590 -1614 0
-1590 -1615 0
-1590 -1616 0
-1590 -1617 0
-1590 -1618 0
-1590 -1619 0
-1590 -1620 0
-1590 -1621 0
-1590 -1622 0
-1590 -1623 0
-1590 -1624 0
-1590 -1625 0
-1590 -1626 0
-1590 -1627 0
-1590 -1628 0
-1590 -1629 0
-1590 -1630 0
-1590 -1631 0
-1590 -1632 0
-1590 -1633 0
-1590 -1634 0
-1590 -1635 0
-1590 -1636 0
-1590 -1637 0
-1590 -1638 0
-1590 -1639 0
-1590 -1640 0
-1590 -1641 0
-1590 -1642 0
-1590 -1643 0
-1590 -1644 0
-1590 -1645 0
-1590 -1646 0
-1590 -1647 0
-1590 -1648 0
-1590 -1649 0
-1590 -1650 0
-1590 -1651 0
-1590 -1652 0
-1590 -1653 0
-1590 -1654 0
-1590 -1655 0
-1590 -1656 0
-1590 -1657 0
-1590 -1658 0
-1590 -1659 0
-1590 -1660 0
-1590 -1661 0
-1590 -1662 0
-1591 -1592 0
-1591 -1593 0
-1591 -1594 0
-1591 -1595 0
-1591 -1596 0
-1591 -1597 0
-1591 -1598 0
-1591 -1599 0
-1591 -1600 0
-1591 -1601 0
-1591 -1602 0
-1591 -1603 0
-1591 -1604 0
-1591 -1605 0
-1591 -1606 0
-1591 -1607 0
-1591 -1608 0
-1591 -1609 0
-1591 -1610 0
-1591 -1611 0
-1591 -1612 0
-1591 -1613 0
-1591 -1614 0
-1591 -1615 0
-1591 -1616 0
-1591 -1617 0
-1591 -1618 0
-1591 -1619 0
-1591 -1620 0
-1591 -1621 0
-1591 -1622 0
-1591 -1623 0
-1591 -1624 0
-1591 -1625 0
-1591 -1626 0
-1591 -1627 0
-1591 -1628 0
-1591 -1629 0
-1591 -1630 0
-1591 -1631 0
-1591 -1632 0
-1591 -1633 0
-1591 -1634 0
-1591 -1635 0
-1591 -1636 0
-1591 -1637 0
-1591 -1638 0
-1591 -1639 0
-1591 -1640 0
-1591 -1641 0
-1591 -1642 0
-1591 -1643 0
-1591 -1644 0
-1591 -1645 0
-1591 -1646 0
-1591 -1647 0
-1591 -1648 0
-1591 -1649 0
-1591 -1650 0
-1591 -1651 0
-1591 -1652 0
-1591 -1653 0
-1591 -1654 0
-1591 -1655 0
-1591 -1656 0
-1591 -1657 0
-1591 -1658 0
-1591 -1659 0
-1591 -1660 0
-1591 -1661 0
-1591 -1662 0
-1592 -1593 0
-1592 -1594 0
-1592 -1595 0
-1592 -1596 0
-1592 -1597 0
-1592 -1598 0
-1592 -1599 0
-1592 -1600 0
-1592 -1601 0
-1592 -1602 0
-1592 -1603 0
-1592 -1604 0
-1592 -1605 0
-1592 -1606 0
-1592 -1607 0
-1592 -1608 0
-1592 -1609 0
-1592 -1610 0
-1592 -1611 0
-1592 -1612 0
-1592 -1613 0
-1592 -1614 0
-1592 -1615 0
-1592 -1616 0
-1592 -1617 0
-1592 -1618 0
-1592 -1619 0
-1592 -1620 0
-1592 -1621 0
-1592 -1622 0
-1592 -1623 0
-1592 -1624 0
-1592 -1625 0
-1592 -1626 0
-1592 -1627 0
-1592 -1628 0
-1592 -1629 0
-1592 -1630 0
-1592 -1631 0
-1592 -1632 0
-1592 -1633 0
-1592 -1634 0
-1592 -1635 0
-1592 -1636 0
-1592 -1637 0
-1592 -1638 0
-1592 -1639 0
-1592 -1640 0
-1592 -1641 0
-1592 -1642 0
-1592 -1643 0
-1592 -1644 0
-1592 -1645 0
-1592 -1646 0
-1592 -1647 0
-1592 -1648 0
-1592 -1649 0
-1592 -1650 0
-1592 -1651 0
-1592 -1652 0
-1592 -1653 0
-1592 -1654 0
-1592 -1655 0
-1592 -1656 0
-1592 -1657 0
-1592 -1658 0
-1592 -1659 0
-1592 -1660 0
-1592 -1661 0
-1592 -1662 0
-1593 -1594 0
-1593 -1595 0
-1593 -1596 0
-1593 -1597 0
-1593 -1598 0
-1593 -1599 0
-1593 -1600 0
-1593 -1601 0
-1593 -1602 0
-1593 -1603 0
-1593 -1604 0
-1593 -1605 0
-1593 -1606 0
-1593 -1607 0
-1593 -1608 0
-1593 -1609 0
-1593 -1610 0
-1593 -1611 0
-1593 -1612 0
-1593 -1613 0
-1593 -1614 0
-1593 -1615 0
-1593 -1616 0
-1593 -1617 0
-1593 -1618 0
-1593 -1619 0
-1593 -1620 0
-1593 -1621 0
-1593 -1622 0
-1593 -1623 0
-1593 -1624 0
-1593 -1625 0
-1593 -1626 0
-1593 -1627 0
-1593 -1628 0
-1593 -1629 0
-1593 -1630 0
-1593 -1631 0
-1593 -1632 0
-1593 -1633 0
-1593 -1634 0
-1593 -1635 0
-1593 -1636 0
-1593 -1637 0
-1593 -1638 0
-1593 -1639 0
-1593 -1640 0
-1593 -1641 0
-1593 -1642 0
-1593 -1643 0
-1593 -1644 0
-1593 -1645 0
-1593 -1646 0
-1593 -1647 0
-1593 -1648 0
-1593 -1649 0
-1593 -1650 0
-1593 -1651 0
-1593 -1652 0
-1593 -1653 0
-1593 -1654 0
-1593 -1655 0
-1593 -1656 0
-1593 -1657 0
-1593 -1658 0
-1593 -1659 0
-1593 -1660 0
-1593 -1661 0
-1593 -1662 0
-1594 -1595 0
-1594 -1596 0
-1594 -1597 0
-1594 -1598 0
-1594 -1599 0
-1594 -1600 0
-1594 -1601 0
-1594 -1602 0
-1594 -1603 0
-1594 -1604 0
-1594 -1605 0
-1594 -1606 0
-1594 -1607 0
-1594 -1608 0
-1594 -1609 0
-1594 -1610 0
-1594 -1611 0
-1594 -1612 0
-1594 -1613 0
-1594 -1614 0
-1594 -1615 0
-1594 -1616 0
-1594 -1617 0
-1594 -1618 0
-1594 -1619 0
-1594 -1620 0
-1594 -1621 0
-1594 -1622 0
-1594 -1623 0
-1594 -1624 0
-1594 -1625 0
-1594 -1626 0
-1594 -1627 0
-1594 -1628 0
-1594 -1629 0
-1594 -1630 0
-1594 -1631 0
-1594 -1632 0
-1594 -1633 0
-1594 -1634 0
-1594 -1635 0
-1594 -1636 0
-1594 -1637 0
-1594 -1638 0
-1594 -1639 0
-1594 -1640 0
-1594 -1641 0
-1594 -1642 0
-1594 -1643 0
-1594 -1644 0
-1594 -1645 0
-1594 -1646 0
-1594 -1647 0
-1594 -1648 0
-1594 -1649 0
-1594 -1650 0
-1594 -1651 0
-1594 -1652 0
-1594 -1653 0
-1594 -1654 0
-1594 -1655 0
-1594 -1656 0
-1594 -1657 0
-1594 -1658 0
-1594 -1659 0
-1594 -1660 0
-1594 -1661 0
-1594 -1662 0
-1595 -1596 0
-1595 -1597 0
-1595 -1598 0
-1595 -1599 0
-1595 -1600 0
-1595 -1601 0
-1595 -1602 0
-1595 -1603 0
-1595 -1604 0
-1595 -1605 0
-1595 -1606 0
-1595 -1607 0
-1595 -1608 0
-1595 -1609 0
-1595 -1610 0
-1595 -1611 0
-1595 -1612 0
-1595 -1613 0
-1595 -1614 0
-1595 -1615 0
-1595 -1616 0
-1595 -1617 0
-1595 -1618 0
-1595 -1619 0
-1595 -1620 0
-1595 -1621 0
-1595 -1622 0
-1595 -1623 0
-1595 -1624 0
-1595 -1625 0
-1595 -1626 0
-1595 -1627 0
-1595 -1628 0
-1595 -1629 0
-1595 -1630 0
-1595 -1631 0
-1595 -1632 0
-1595 -1633 0
-1595 -1634 0
-1595 -1635 0
-1595 -1636 0
-1595 -1637 0
-1595 -1638 0
-1595 -1639 0
-1595 -1640 0
-1595 -1641 0
-1595 -1642 0
-1595 -1643 0
-1595 -1644 0
-1595 -1645 0
-1595 -1646 0
-1595 -1647 0
-1595 -1648 0
-1595 -1649 0
-1595 -1650 0
-1595 -1651 0
-1595 -1652 0
-1595 -1653 0
-1595 -1654 0
-1595 -1655 0
-1595 -1656 0
-1595 -1657 0
-1595 -1658 0
-1595 -1659 0
-1595 -1660 0
-1595 -1661 0
-1595 -1662 0
-1596 -1597 0
-1596 -1598 0
-1596 -1599 0
-1596 -1600 0
-1596 -1601 0
-1596 -1602 0
-1596 -1603 0
-1596 -1604 0
-1596 -1605 0
-1596 -1606 0
-1596 -1607 0
-1596 -1608 0
-1596 -1609 0
-1596 -1610 0
-1596 -1611 0
-1596 -1612 0
-1596 -1613 0
-1596 -1614 0
-1596 -1615 0
-1596 -1616 0
-1596 -1617 0
-1596 -1618 0
-1596 -1619 0
-1596 -1620 0
-1596 -1621 0
-1596 -1622 0
-1596 -1623 0
-1596 -1624 0
-1596 -1625 0
-1596 -1626 0
-1596 -1627 0
-1596 -1628 0
-1596 -1629 0
-1596 -1630 0
-1596 -1631 0
-1596 -1632 0
-1596 -1633 0
-1596 -1634 0
-1596 -1635 0
-1596 -1636 0
-1596 -1637 0
-1596 -1638 0
-1596 -1639 0
-1596 -1640 0
-1596 -1641 0
-1596 -1642 0
-1596 -1643 0
-1596 -1644 0
-1596 -1645 0
-1596 -1646 0
-1596 -1647 0
-1596 -1648 0
-1596 -1649 0
-1596 -1650 0
-1596 -1651 0
-1596 -1652 0
-1596 -1653 0
-1596 -1654 0
-1596 -1655 0
-1596 -1656 0
-1596 -1657 0
-1596 -1658 0
-1596 -1659 0
-1596 -1660 0
-1596 -1661 0
-1596 -1662 0
-1597 -1598 0
-1597 -1599 0
-1597 -1600 0
-1597 -1601 0
-1597 -1602 0
-1597 -1603 0
-1597 -1604 0
-1597 -1605 0
-1597 -1606 0
-1597 -1607 0
-1597 -1608 0
-1597 -1609 0
-1597 -1610 0
-1597 -1611 0
-1597 -1612 0
-1597 -1613 0
-1597 -1614 0
-1597 -1615 0
-1597 -1616 0
-1597 -1617 0
-1597 -1618 0
-1597 -1619 0
-1597 -1620 0
-1597 -1621 0
-1597 -1622 0
-1597 -1623 0
-1597 -1624 0
-1597 -1625 0
-1597 -1626 0
-1597 -1627 0
-1597 -1628 0
-1597 -1629 0
-1597 -1630 0
-1597 -1631 0
-1597 -1632 0
-1597 -1633 0
-1597 -1634 0
-1597 -1635 0
-1597 -1636 0
-1597 -1637 0
-1597 -1638 0
-1597 -1639 0
-1597 -1640 0
-1597 -1641 0
-1597 -1642 0
-1597 -1643 0
-1597 -1644 0
-1597 -1645 0
-1597 -1646 0
-1597 -1647 0
-1597 -1648 0
-1597 -1649 0
-1597 -1650 0
-1597 -1651 0
-1597 -1652 0
-1597 -1653 0
-1597 -1654 0
-1597 -1655 0
-1597 -1656 0
-1597 -1657 0
-1597 -1658 0
-1597 -1659 0
-1597 -1660 0
-1597 -1661 0
-1597 -1662 0
-1598 -1599 0
-1598 -1600 0
-1598 -1601 0
-1598 -1602 0
-1598 -1603 0
-1598 -1604 0
-1598 -1605 0
-1598 -1606 0
-1598 -1607 0
-1598 -1608 0
-1598 -1609 0
-1598 -1610 0
-1598 -1611 0
-1598 -1612 0
-1598 -1613 0
-1598 -1614 0
-1598 -1615 0
-1598 -1616 0
-1598 -1617 0
-1598 -1618 0
-1598 -1619 0
-1598 -1620 0
-1598 -1621 0
-1598 -1622 0
-1598 -1623 0
-1598 -1624 0
-1598 -1625 0
-1598 -1626 0
-1598 -1627 0
-1598 -1628 0
-1598 -1629 0
-1598 -1630 0
-1598 -1631 0
-1598 -1632 0
-1598 -1633 0
-1598 -1634 0
-1598 -1635 0
-1598 -1636 0
-1598 -1637 0
-1598 -1638 0
-1598 -1639 0
-1598 -1640 0
-1598 -1641 0
-1598 -1642 0
-1598 -1643 0
-1598 -1644 0
-1598 -1645 0
-1598 -1646 0
-1598 -1647 0
-1598 -1648 0
-1598 -1649 0
-1598 -1650 0
-1598 -1651 0
-1598 -1652 0
-1598 -1653 0
-1598 -1654 0
-1598 -1655 0
-1598 -1656 0
-1598 -1657 0
-1598 -1658 0
-1598 -1659 0
-1598 -1660 0
-1598 -1661 0
-1598 -1662 0
-1599 -1600 0
-1599 -1601 0
-1599 -1602 0
-1599 -1603 0
-1599 -1604 0
-1599 -1605 0
-1599 -1606 0
-1599 -1607 0
-1599 -1608 0
-1599 -1609 0
-1599 -1610 0
-1599 -1611 0
-1599 -1612 0
-1599 -1613 0
-1599 -1614 0
-1599 -1615 0
-1599 -1616 0
-1599 -1617 0
-1599 -1618 0
-1599 -1619 0
-1599 -1620 0
-1599 -1621 0
-1599 -1622 0
-1599 -1623 0
-1599 -1624 0
-1599 -1625 0
-1599 -1626 0
-1599 -1627 0
-1599 -1628 0
-1599 -1629 0
-1599 -1630 0
-1599 -1631 0
-1599 -1632 0
-1599 -1633 0
-1599 -1634 0
-1599 -1635 0
-1599 -1636 0
-1599 -1637 0
-1599 -1638 0
-1599 -1639 0
-1599 -1640 0
-1599 -1641 0
-1599 -1642 0
-1599 -1643 0
-1599 -1644 0
-1599 -1645 0
-1599 -1646 0
-1599 -1647 0
-1599 -1648 0
-1599 -1649 0
-1599 -1650 0
-1599 -1651 0
-1599 -1652 0
-1599 -1653 0
-1599 -1654 0
-1599 -1655 0
-1599 -1656 0
-1599 -1657 0
-1599 -1658 0
-1599 -1659 0
-1599 -1660 0
-1599 -1661 0
-1599 -1662 0
-1600 -1601 0
-1600 -1602 0
-1600 -1603 0
-1600 -1604 0
-1600 -1605 0
-1600 -1606 0
-1600 -1607 0
-1600 -1608 0
-1600 -1609 0
-1600 -1610 0
-1600 -1611 0
-1600 -1612 0
-1600 -1613 0
-1600 -1614 0
-1600 -1615 0
-1600 -1616 0
-1600 -1617 0
-1600 -1618 0
-1600 -1619 0
-1600 -1620 0
-1600 -1621 0
-1600 -1622 0
-1600 -1623 0
-1600 -1624 0
-1600 -1625 0
-1600 -1626 0
-1600 -1627 0
-1600 -1628 0
-1600 -1629 0
-1600 -1630 0
-1600 -1631 0
-1600 -1632 0
-1600 -1633 0
-1600 -1634 0
-1600 -1635 0
-1600 -1636 0
-1600 -1637 0
-1600 -1638 0
-1600 -1639 0
-1600 -1640 0
-1600 -1641 0
-1600 -1642 0
-1600 -1643 0
-1600 -1644 0
-1600 -1645 0
-1600 -1646 0
-1600 -1647 0
-1600 -1648 0
-1600 -1649 0
-1600 -1650 0
-1600 -1651 0
-1600 -1652 0
-1600 -1653 0
-1600 -1654 0
-1600 -1655 0
-1600 -1656 0
-1600 -1657 0
-1600 -1658 0
-1600 -1659 0
-1600 -1660 0
-1600 -1661 0
-1600 -1662 0
-1601 -1602 0
-1601 -1603 0
-1601 -1604 0
-1601 -1605 0
-1601 -1606 0
-1601 -1607 0
-1601 -1608 0
-1601 -1609 0
-1601 -1610 0
-1601 -1611 0
-1601 -1612 0
-1601 -1613 0
-1601 -1614 0
-1601 -1615 0
-1601 -1616 0
-1601 -1617 0
-1601 -1618 0
-1601 -1619 0
-1601 -1620 0
-1601 -1621 0
-1601 -1622 0
-1601 -1623 0
-1601 -1624 0
-1601 -1625 0
-1601 -1626 0
-1601 -1627 0
-1601 -1628 0
-1601 -1629 0
-1601 -1630 0
-1601 -1631 0
-1601 -1632 0
-1601 -1633 0
-1601 -1634 0
-1601 -1635 0
-1601 -1636 0
-1601 -1637 0
-1601 -1638 0
-1601 -1639 0
-1601 -1640 0
-1601 -1641 0
-1601 -1642 0
-1601 -1643 0
-1601 -1644 0
-1601 -1645 0
-1601 -1646 0
-1601 -1647 0
-1601 -1648 0
-1601 -1649 0
-1601 -1650 0
-1601 -1651 0
-1601 -1652 0
-1601 -1653 0
-1601 -1654 0
-1601 -1655 0
-1601 -1656 0
-1601 -1657 0
-1601 -1658 0
-1601 -1659 0
-1601 -1660 0
-1601 -1661 0
-1601 -1662 0
-1602 -1603 0
-1602 -1604 0
-1602 -1605 0
-1602 -1606 0
-1602 -1607 0
-1602 -1608 0
-1602 -1609 0
-1602 -1610 0
-1602 -1611 0
-1602 -1612 0
-1602 -1613 0
-1602 -1614 0
-1602 -1615 0
-1602 -1616 0
-1602 -1617 0
-1602 -1618 0
-1602 -1619 0
-1602 -1620 0
-1602 -1621 0
-1602 -1622 0
-1602 -1623 0
-1602 -1624 0
-1602 -1625 0
-1602 -1626 0
-1602 -1627 0
-1602 -1628 0
-1602 -1629 0
-1602 -1630 0
-1602 -1631 0
-1602 -1632 0
-1602 -1633 0
-1602 -1634 0
-1602 -1635 0
-1602 -1636 0
-1602 -1637 0
-1602 -1638 0
-1602 -1639 0
-1602 -1640 0
-1602 -1641 0
-1602 -1642 0
-1602 -1643 0
-1602 -1644 0
-1602 -1645 0
-1602 -1646 0
-1602 -1647 0
-1602 -1648 0
-1602 -1649 0
-1602 -1650 0
-1602 -1651 0
-1602 -1652 0
-1602 -1653 0
-1602 -1654 0
-1602 -1655 0
-1602 -1656 0
-1602 -1657 0
-1602 -1658 0
-1602 -1659 0
-1602 -1660 0
-1602 -1661 0
-1602 -1662 0
-1603 -1604 0
-1603 -1605 0
-1603 -1606 0
-1603 -1607 0
-1603 -1608 0
-1603 -1609 0
-1603 -1610 0
-1603 -1611 0
-1603 -1612 0
-1603 -1613 0
-1603 -1614 0
-1603 -1615 0
-1603 -1616 0
-1603 -1617 0
-1603 -1618 0
-1603 -1619 0
-1603 -1620 0
-1603 -1621 0
-1603 -1622 0
-1603 -1623 0
-1603 -1624 0
-1603 -1625 0
-1603 -1626 0
-1603 -1627 0
-1603 -1628 0
-1603 -1629 0
-1603 -1630 0
-1603 -1631 0
-1603 -1632 0
-1603 -1633 0
-1603 -1634 0
-1603 -1635 0
-1603 -1636 0
-1603 -1637 0
-1603 -1638 0
-1603 -1639 0
-1603 -1640 0
-1603 -1641 0
-1603 -1642 0
-1603 -1643 0
-1603 -1644 0
-1603 -1645 0
-1603 -1646 0
-1603 -1647 0
-1603 -1648 0
-1603 -1649 0
-1603 -1650 0
-1603 -1651 0
-1603 -1652 0
-1603 -1653 0
-1603 -1654 0
-1603 -1655 0
-1603 -1656 0
-1603 -1657 0
-1603 -1658 0
-1603 -1659 0
-1603 -1660 0
-1603 -1661 0
-1603 -1662 0
-1604 -1605 0
-1604 -1606 0
-1604 -1607 0
-1604 -1608 0
-1604 -1609 0
-1604 -1610 0
-1604 -1611 0
-1604 -1612 0
-1604 -1613 0
-1604 -1614 0
-1604 -1615 0
-1604 -1616 0
-1604 -1617 0
-1604 -1618 0
-1604 -1619 0
-1604 -1620 0
-1604 -1621 0
-1604 -1622 0
-1604 -1623 0
-1604 -1624 0
-1604 -1625 0
-1604 -1626 0
-1604 -1627 0
-1604 -1628 0
-1604 -1629 0
-1604 -1630 0
-1604 -1631 0
-1604 -1632 0
-1604 -1633 0
-1604 -1634 0
-1604 -1635 0
-1604 -1636 0
-1604 -1637 0
-1604 -1638 0
-1604 -1639 0
-1604 -1640 0
-1604 -1641 0
-1604 -1642 0
-1604 -1643 0
-1604 -1644 0
-1604 -1645 0
-1604 -1646 0
-1604 -1647 0
-1604 -1648 0
-1604 -1649 0
-1604 -1650 0
-1604 -1651 0
-1604 -1652 0
-1604 -1653 0
-1604 -1654 0
-1604 -1655 0
-1604 -1656 0
-1604 -1657 0
-1604 -1658 0
-1604 -1659 0
-1604 -1660 0
-1604 -1661 0
-1604 -1662 0
-1605 -1606 0
-1605 -1607 0
-1605 -1608 0
-1605 -1609 0
-1605 -1610 0
-1605 -1611 0
-1605 -1612 0
-1605 -1613 0
-1605 -1614 0
-1605 -1615 0
-1605 -1616 0
-1605 -1617 0
-1605 -1618 0
-1605 -1619 0
-1605 -1620 0
-1605 -1621 0
-1605 -1622 0
-1605 -1623 0
-1605 -1624 0
-1605 -1625 0
-1605 -1626 0
-1605 -1627 0
-1605 -1628 0
-1605 -1629 0
-1605 -1630 0
-1605 -1631 0
-1605 -1632 0
-1605 -1633 0
-1605 -1634 0
-1605 -1635 0
-1605 -1636 0
-1605 -1637 0
-1605 -1638 0
-1605 -1639 0
-1605 -1640 0
-1605 -1641 0
-1605 -1642 0
-1605 -1643 0
-1605 -1644 0
-1605 -1645 0
-1605 -1646 0
-1605 -1647 0
-1605 -1648 0
-1605 -1649 0
-1605 -1650 0
-1605 -1651 0
-1605 -1652 0
-1605 -1653 0
-1605 -1654 0
-1605 -1655 0
-1605 -1656 0
-1605 -1657 0
-1605 -1658 0
-1605 -1659 0
-1605 -1660 0
-1605 -1661 0
-1605 -1662 0
-1606 -1607 0
-1606 -1608 0
-1606 -1609 0
-1606 -1610 0
-1606 -1611 0
-1606 -1612 0
-1606 -1613 0
-1606 -1614 0
-1606 -1615 0
-1606 -1616 0
-1606 -1617 0
-1606 -1618 0
-1606 -1619 0
-1606 -1620 0
-1606 -1621 0
-1606 -1622 0
-1606 -1623 0
-1606 -1624 0
-1606 -1625 0
-1606 -1626 0
-1606 -1627 0
-1606 -1628 0
-1606 -1629 0
-1606 -1630 0
-1606 -1631 0
-1606 -1632 0
-1606 -1633 0
-1606 -1634 0
-1606 -1635 0
-1606 -1636 0
-1606 -1637 0
-1606 -1638 0
-1606 -1639 0
-1606 -1640 0
-1606 -1641 0
-1606 -1642 0
-1606 -1643 0
-1606 -1644 0
-1606 -1645 0
-1606 -1646 0
-1606 -1647 0
-1606 -1648 0
-1606 -1649 0
-1606 -1650 0
-1606 -1651 0
-1606 -1652 0
-1606 -1653 0
-1606 -1654 0
-1606 -1655 0
-1606 -1656 0
-1606 -1657 0
-1606 -1658 0
-1606 -1659 0
-1606 -1660 0
-1606 -1661 0
-1606 -1662 0
-1607 -1608 0
-1607 -1609 0
-1607 -1610 0
-1607 -1611 0
-1607 -1612 0
-1607 -1613 0
-1607 -1614 0
-1607 -1615 0
-1607 -1616 0
-1607 -1617 0
-1607 -1618 0
-1607 -1619 0
-1607 -1620 0
-1607 -1621 0
-1607 -1622 0
-1607 -1623 0
-1607 -1624 0
-1607 -1625 0
-1607 -1626 0
-1607 -1627 0
-1607 -1628 0
-1607 -1629 0
-1607 -1630 0
-1607 -1631 0
-1607 -1632 0
-1607 -1633 0
-1607 -1634 0
-1607 -1635 0
-1607 -1636 0
-1607 -1637 0
-1607 -1638 0
-1607 -1639 0
-1607 -1640 0
-1607 -1641 0
-1607 -1642 0
-1607 -1643 0
-1607 -1644 0
-1607 -1645 0
-1607 -1646 0
-1607 -1647 0
-1607 -1648 0
-1607 -1649 0
-1607 -1650 0
-1607 -1651 0
-1607 -1652 0
-1607 -1653 0
-1607 -1654 0
-1607 -1655 0
-1607 -1656 0
-1607 -1657 0
-1607 -1658 0
-1607 -1659 0
-1607 -1660 0
-1607 -1661 0
-1607 -1662 0
-1608 -1609 0
-1608 -1610 0
-1608 -1611 0
-1608 -1612 0
-1608 -1613 0
-1608 -1614 0
-1608 -1615 0
-1608 -1616 0
-1608 -1617 0
-1608 -1618 0
-1608 -1619 0
-1608 -1620 0
-1608 -1621 0
-1608 -1622 0
-1608 -1623 0
-1608 -1624 0
-1608 -1625 0
-1608 -1626 0
-1608 -1627 0
-1608 -1628 0
-1608 -1629 0
-1608 -1630 0
-1608 -1631 0
-1608 -1632 0
-1608 -1633 0
-1608 -1634 0
-1608 -1635 0
-1608 -1636 0
-1608 -1637 0
-1608 -1638 0
-1608 -1639 0
-1608 -1640 0
-1608 -1641 0
-1608 -1642 0
-1608 -1643 0
-1608 -1644 0
-1608 -1645 0
-1608 -1646 0
-1608 -1647 0
-1608 -1648 0
-1608 -1649 0
-1608 -1650 0
-1608 -1651 0
-1608 -1652 0
-1608 -1653 0
-1608 -1654 0
-1608 -1655 0
-1608 -1656 0
-1608 -1657 0
-1608 -1658 0
-1608 -1659 0
-1608 -1660 0
-1608 -1661 0
-1608 -1662 0
-1609 -1610 0
-1609 -1611 0
-1609 -1612 0
-1609 -1613 0
-1609 -1614 0
-1609 -1615 0
-1609 -1616 0
-1609 -1617 0
-1609 -1618 0
-1609 -1619 0
-1609 -1620 0
-1609 -1621 0
-1609 -1622 0
-1609 -1623 0
-1609 -1624 0
-1609 -1625 0
-1609 -1626 0
-1609 -1627 0
-1609 -1628 0
-1609 -1629 0
-1609 -1630 0
-1609 -1631 0
-1609 -1632 0
-1609 -1633 0
-1609 -1634 0
-1609 -1635 0
-1609 -1636 0
-1609 -1637 0
-1609 -1638 0
-1609 -1639 0
-1609 -1640 0
-1609 -1641 0
-1609 -1642 0
-1609 -1643 0
-1609 -1644 0
-1609 -1645 0
-1609 -1646 0
-1609 -1647 0
-1609 -1648 0
-1609 -1649 0
-1609 -1650 0
-1609 -1651 0
-1609 -1652 0
-1609 -1653 0
-1609 -1654 0
-1609 -1655 0
-1609 -1656 0
-1609 -1657 0
-1609 -1658 0
-1609 -1659 0
-1609 -1660 0
-1609 -1661 0
-1609 -1662 0
-1610 -1611 0
-1610 -1612 0
-1610 -1613 0
-1610 -1614 0
-1610 -1615 0
-1610 -1616 0
-1610 -1617 0
-1610 -1618 0
-1610 -1619 0
-1610 -1620 0
-1610 -1621 0
-1610 -1622 0
-1610 -1623 0
-1610 -1624 0
-1610 -1625 0
-1610 -1626 0
-1610 -1627 0
-1610 -1628 0
-1610 -1629 0
-1610 -1630 0
-1610 -1631 0
-1610 -1632 0
-1610 -1633 0
-1610 -1634 0
-1610 -1635 0
-1610 -1636 0
-1610 -1637 0
-1610 -1638 0
-1610 -1639 0
-1610 -1640 0
-1610 -1641 0
-1610 -1642 0
-1610 -1643 0
-1610 -1644 0
-1610 -1645 0
-1610 -1646 0
-1610 -1647 0
-1610 -1648 0
-1610 -1649 0
-1610 -1650 0
-1610 -1651 0
-1610 -1652 0
-1610 -1653 0
-1610 -1654 0
-1610 -1655 0
-1610 -1656 0
-1610 -1657 0
-1610 -1658 0
-1610 -1659 0
-1610 -1660 0
-1610 -1661 0
-1610 -1662 0
-1611 -1612 0
-1611 -1613 0
-1611 -1614 0
-1611 -1615 0
-1611 -1616 0
-1611 -1617 0
-1611 -1618 0
-1611 -1619 0
-1611 -1620 0
-1611 -1621 0
-1611 -1622 0
-1611 -1623 0
-1611 -1624 0
-1611 -1625 0
-1611 -1626 0
-1611 -1627 0
-1611 -1628 0
-1611 -1629 0
-1611 -1630 0
-1611 -1631 0
-1611 -1632 0
-1611 -1633 0
-1611 -1634 0
-1611 -1635 0
-1611 -1636 0
-1611 -1637 0
-1611 -1638 0
-1611 -1639 0
-1611 -1640 0
-1611 -1641 0
-1611 -1642 0
-1611 -1643 0
-1611 -1644 0
-1611 -1645 0
-1611 -1646 0
-1611 -1647 0
-1611 -1648 0
-1611 -1649 0
-1611 -1650 0
-1611 -1651 0
-1611 -1652 0
-1611 -1653 0
-1611 -1654 0
-1611 -1655 0
-1611 -1656 0
-1611 -1657 0
-1611 -1658 0
-1611 -1659 0
-1611 -1660 0
-1611 -1661 0
-1611 -1662 0
-1612 -1613 0
-1612 -1614 0
-1612 -1615 0
-1612 -1616 0
-1612 -1617 0
-1612 -1618 0
-1612 -1619 0
-1612 -1620 0
-1612 -1621 0
-1612 -1622 0
-1612 -1623 0
-1612 -1624 0
-1612 -1625 0
-1612 -1626 0
-1612 -1627 0
-1612 -1628 0
-1612 -1629 0
-1612 -1630 0
-1612 -1631 0
-1612 -1632 0
-1612 -1633 0
-1612 -1634 0
-1612 -1635 0
-1612 -1636 0
-1612 -1637 0
-1612 -1638 0
-1612 -1639 0
-1612 -1640 0
-1612 -1641 0
-1612 -1642 0
-1612 -1643 0
-1612 -1644 0
-1612 -1645 0
-1612 -1646 0
-1612 -1647 0
-1612 -1648 0
-1612 -1649 0
-1612 -1650 0
-1612 -1651 0
-1612 -1652 0
-1612 -1653 0
-1612 -1654 0
-1612 -1655 0
-1612 -1656 0
-1612 -1657 0
-1612 -1658 0
-1612 -1659 0
-1612 -1660 0
-1612 -1661 0
-1612 -1662 0
-1613 -1614 0
-1613 -1615 0
-1613 -1616 0
-1613 -1617 0
-1613 -1618 0
-1613 -1619 0
-1613 -1620 0
-1613 -1621 0
-1613 -1622 0
-1613 -1623 0
-1613 -1624 0
-1613 -1625 0
-1613 -1626 0
-1613 -1627 0
-1613 -1628 0
-1613 -1629 0
-1613 -1630 0
-1613 -1631 0
-1613 -1632 0
-1613 -1633 0
-1613 -1634 0
-1613 -1635 0
-1613 -1636 0
-1613 -1637 0
-1613 -1638 0
-1613 -1639 0
-1613 -1640 0
-1613 -1641 0
-1613 -1642 0
-1613 -1643 0
-1613 -1644 0
-1613 -1645 0
-1613 -1646 0
-1613 -1647 0
-1613 -1648 0
-1613 -1649 0
-1613 -1650 0
-1613 -1651 0
-1613 -1652 0
-1613 -1653 0
-1613 -1654 0
-1613 -1655 0
-1613 -1656 0
-1613 -1657 0
-1613 -1658 0
-1613 -1659 0
-1613 -1660 0
-1613 -1661 0
-1613 -1662 0
-1614 -1615 0
-1614 -1616 0
-1614 -1617 0
-1614 -1618 0
-1614 -1619 0
-1614 -1620 0
-1614 -1621 0
-1614 -1622 0
-1614 -1623 0
-1614 -1624 0
-1614 -1625 0
-1614 -1626 0
-1614 -1627 0
-1614 -1628 0
-1614 -1629 0
-1614 -1630 0
-1614 -1631 0
-1614 -1632 0
-1614 -1633 0
-1614 -1634 0
-1614 -1635 0
-1614 -1636 0
-1614 -1637 0
-1614 -1638 0
-1614 -1639 0
-1614 -1640 0
-1614 -1641 0
-1614 -1642 0
-1614 -1643 0
-1614 -1644 0
-1614 -1645 0
-1614 -1646 0
-1614 -1647 0
-1614 -1648 0
-1614 -1649 0
-1614 -1650 0
-1614 -1651 0
-1614 -1652 0
-1614 -1653 0
-1614 -1654 0
-1614 -1655 0
-1614 -1656 0
-1614 -1657 0
-1614 -1658 0
-1614 -1659 0
-1614 -1660 0
-1614 -1661 0
-1614 -1662 0
-1615 -1616 0
-1615 -1617 0
-1615 -1618 0
-1615 -1619 0
-1615 -1620 0
-1615 -1621 0
-1615 -1622 0
-1615 -1623 0
-1615 -1624 0
-1615 -1625 0
-1615 -1626 0
-1615 -1627 0
-1615 -1628 0
-1615 -1629 0
-1615 -1630 0
-1615 -1631 0
-1615 -1632 0
-1615 -1633 0
-1615 -1634 0
-1615 -1635 0
-1615 -1636 0
-1615 -1637 0
-1615 -1638 0
-1615 -1639 0
-1615 -1640 0
-1615 -1641 0
-1615 -1642 0
-1615 -1643 0
-1615 -1644 0
-1615 -1645 0
-1615 -1646 0
-1615 -1647 0
-1615 -1648 0
-1615 -1649 0
-1615 -1650 0
-1615 -1651 0
-1615 -1652 0
-1615 -1653 0
-1615 -1654 0
-1615 -1655 0
-1615 -1656 0
-1615 -1657 0
-1615 -1658 0
-1615 -1659 0
-1615 -1660 0
-1615 -1661 0
-1615 -1662 0
-1616 -1617 0
-1616 -1618 0
-1616 -1619 0
-1616 -1620 0
-1616 -1621 0
-1616 -1622 0
-1616 -1623 0
-1616 -1624 0
-1616 -1625 0
-1616 -1626 0
-1616 -1627 0
-1616 -1628 0
-1616 -1629 0
-1616 -1630 0
-1616 -1631 0
-1616 -1632 0
-1616 -1633 0
-1616 -1634 0
-1616 -1635 0
-1616 -1636 0
-1616 -1637 0
-1616 -1638 0
-1616 -1639 0
-1616 -1640 0
-1616 -1641 0
-1616 -1642 0
-1616 -1643 0
-1616 -1644 0
-1616 -1645 0
-1616 -1646 0
-1616 -1647 0
-1616 -1648 0
-1616 -1649 0
-1616 -1650 0
-1616 -1651 0
-1616 -1652 0
-1616 -1653 0
-1616 -1654 0
-1616 -1655 0
-1616 -1656 0
-1616 -1657 0
-1616 -1658 0
-1616 -1659 0
-1616 -1660 0
-1616 -1661 0
-1616 -1662 0
-1617 -1618 0
-1617 -1619 0
-1617 -1620 0
-1617 -1621 0
-1617 -1622 0
-1617 -1623 0
-1617 -1624 0
-1617 -1625 0
-1617 -1626 0
-1617 -1627 0
-1617 -1628 0
-1617 -1629 0
-1617 -1630 0
-1617 -1631 0
-1617 -1632 0
-1617 -1633 0
-1617 -1634 0
-1617 -1635 0
-1617 -1636 0
-1617 -1637 0
-1617 -1638 0
-1617 -1639 0
-1617 -1640 0
-1617 -1641 0
-1617 -1642 0
-1617 -1643 0
-1617 -1644 0
-1617 -1645 0
-1617 -1646 0
-1617 -1647 0
-1617 -1648 0
-1617 -1649 0
-1617 -1650 0
-1617 -1651 0
-1617 -1652 0
-1617 -1653 0
-1617 -1654 0
-1617 -1655 0
-1617 -1656 0
-1617 -1657 0
-1617 -1658 0
-1617 -1659 0
-1617 -1660 0
-1617 -1661 0
-1617 -1662 0
-1618 -1619 0
-1618 -1620 0
-1618 -1621 0
-1618 -1622 0
-1618 -1623 0
-1618 -1624 0
-1618 -1625 0
-1618 -1626 0
-1618 -1627 0
-1618 -1628 0
-1618 -1629 0
-1618 -1630 0
-1618 -1631 0
-1618 -1632 0
-1618 -1633 0
-1618 -1634 0
-1618 -1635 0
-1618 -1636 0
-1618 -1637 0
-1618 -1638 0
-1618 -1639 0
-1618 -1640 0
-1618 -1641 0
-1618 -1642 0
-1618 -1643 0
-1618 -1644 0
-1618 -1645 0
-1618 -1646 0
-1618 -1647 0
-1618 -1648 0
-1618 -1649 0
-1618 -1650 0
-1618 -1651 0
-1618 -1652 0
-1618 -1653 0
-1618 -1654 0
-1618 -1655 0
-1618 -1656 0
-1618 -1657 0
-1618 -1658 0
-1618 -1659 0
-1618 -1660 0
-1618 -1661 0
-1618 -1662 0
-1619 -1620 0
-1619 -1621 0
-1619 -1622 0
-1619 -1623 0
-1619 -1624 0
-1619 -1625 0
-1619 -1626 0
-1619 -1627 0
-1619 -1628 0
-1619 -1629 0
-1619 -1630 0
-1619 -1631 0
-1619 -1632 0
-1619 -1633 0
-1619 -1634 0
-1619 -1635 0
-1619 -1636 0
-1619 -1637 0
-1619 -1638 0
-1619 -1639 0
-1619 -1640 0
-1619 -1641 0
-1619 -1642 0
-1619 -1643 0
-1619 -1644 0
-1619 -1645 0
-1619 -1646 0
-1619 -1647 0
-1619 -1648 0
-1619 -1649 0
-1619 -1650 0
-1619 -1651 0
-1619 -1652 0
-1619 -1653 0
-1619 -1654 0
-1619 -1655 0
-1619 -1656 0
-1619 -1657 0
-1619 -1658 0
-1619 -1659 0
-1619 -1660 0
-1619 -1661 0
-1619 -1662 0
-1620 -1621 0
-1620 -1622 0
-1620 -1623 0
-1620 -1624 0
-1620 -1625 0
-1620 -1626 0
-1620 -1627 0
-1620 -1628 0
-1620 -1629 0
-1620 -1630 0
-1620 -1631 0
-1620 -1632 0
-1620 -1633 0
-1620 -1634 0
-1620 -1635 0
-1620 -1636 0
-1620 -1637 0
-1620 -1638 0
-1620 -1639 0
-1620 -1640 0
-1620 -1641 0
-1620 -1642 0
-1620 -1643 0
-1620 -1644 0
-1620 -1645 0
-1620 -1646 0
-1620 -1647 0
-1620 -1648 0
-1620 -1649 0
-1620 -1650 0
-1620 -1651 0
-1620 -1652 0
-1620 -1653 0
-1620 -1654 0
-1620 -1655 0
-1620 -1656 0
-1620 -1657 0
-1620 -1658 0
-1620 -1659 0
-1620 -1660 0
-1620 -1661 0
-1620 -1662 0
-1621 -1622 0
-1621 -1623 0
-1621 -1624 0
-1621 -1625 0
-1621 -1626 0
-1621 -1627 0
-1621 -1628 0
-1621 -1629 0
-1621 -1630 0
-1621 -1631 0
-1621 -1632 0
-1621 -1633 0
-1621 -1634 0
-1621 -1635 0
-1621 -1636 0
-1621 -1637 0
-1621 -1638 0
-1621 -1639 0
-1621 -1640 0
-1621 -1641 0
-1621 -1642 0
-1621 -1643 0
-1621 -1644 0
-1621 -1645 0
-1621 -1646 0
-1621 -1647 0
-1621 -1648 0
-1621 -1649 0
-1621 -1650 0
-1621 -1651 0
-1621 -1652 0
-1621 -1653 0
-1621 -1654 0
-1621 -1655 0
-1621 -1656 0
-1621 -1657 0
-1621 -1658 0
-1621 -1659 0
-1621 -1660 0
-1621 -1661 0
-1621 -1662 0
-1622 -1623 0
-1622 -1624 0
-1622 -1625 0
-1622 -1626 0
-1622 -1627 0
-1622 -1628 0
-1622 -1629 0
-1622 -1630 0
-1622 -1631 0
-1622 -1632 0
-1622 -1633 0
-1622 -1634 0
-1622 -1635 0
-1622 -1636 0
-1622 -1637 0
-1622 -1638 0
-1622 -1639 0
-1622 -1640 0
-1622 -1641 0
-1622 -1642 0
-1622 -1643 0
-1622 -1644 0
-1622 -1645 0
-1622 -1646 0
-1622 -1647 0
-1622 -1648 0
-1622 -1649 0
-1622 -1650 0
-1622 -1651 0
-1622 -1652 0
-1622 -1653 0
-1622 -1654 0
-1622 -1655 0
-1622 -1656 0
-1622 -1657 0
-1622 -1658 0
-1622 -1659 0
-1622 -1660 0
-1622 -1661 0
-1622 -1662 0
-1623 -1624 0
-1623 -1625 0
-1623 -1626 0
-1623 -1627 0
-1623 -1628 0
-1623 -1629 0
-1623 -1630 0
-1623 -1631 0
-1623 -1632 0
-1623 -1633 0
-1623 -1634 0
-1623 -1635 0
-1623 -1636 0
-1623 -1637 0
-1623 -1638 0
-1623 -1639 0
-1623 -1640 0
-1623 -1641 0
-1623 -1642 0
-1623 -1643 0
-1623 -1644 0
-1623 -1645 0
-1623 -1646 0
-1623 -1647 0
-1623 -1648 0
-1623 -1649 0
-1623 -1650 0
-1623 -1651 0
-1623 -1652 0
-1623 -1653 0
-1623 -1654 0
-1623 -1655 0
-1623 -1656 0
-1623 -1657 0
-1623 -1658 0
-1623 -1659 0
-1623 -1660 0
-1623 -1661 0
-1623 -1662 0
-1624 -1625 0
-1624 -1626 0
-1624 -1627 0
-1624 -1628 0
-1624 -1629 0
-1624 -1630 0
-1624 -1631 0
-1624 -1632 0
-1624 -1633 0
-1624 -1634 0
-1624 -1635 0
-1624 -1636 0
-1624 -1637 0
-1624 -1638 0
-1624 -1639 0
-1624 -1640 0
-1624 -1641 0
-1624 -1642 0
-1624 -1643 0
-1624 -1644 0
-1624 -1645 0
-1624 -1646 0
-1624 -1647 0
-1624 -1648 0
-1624 -1649 0
-1624 -1650 0
-1624 -1651 0
-1624 -1652 0
-1624 -1653 0
-1624 -1654 0
-1624 -1655 0
-1624 -1656 0
-1624 -1657 0
-1624 -1658 0
-1624 -1659 0
-1624 -1660 0
-1624 -1661 0
-1624 -1662 0
-1625 -1626 0
-1625 -1627 0
-1625 -1628 0
-1625 -1629 0
-1625 -1630 0
-1625 -1631 0
-1625 -1632 0
-1625 -1633 0
-1625 -1634 0
-1625 -1635 0
-1625 -1636 0
-1625 -1637 0
-1625 -1638 0
-1625 -1639 0
-1625 -1640 0
-1625 -1641 0
-1625 -1642 0
-1625 -1643 0
-1625 -1644 0
-1625 -1645 0
-1625 -1646 0
-1625 -1647 0
-1625 -1648 0
-1625 -1649 0
-1625 -1650 0
-1625 -1651 0
-1625 -1652 0
-1625 -1653 0
-1625 -1654 0
-1625 -1655 0
-1625 -1656 0
-1625 -1657 0
-1625 -1658 0
-1625 -1659 0
-1625 -1660 0
-1625 -1661 0
-1625 -1662 0
-1626 -1627 0
-1626 -1628 0
-1626 -1629 0
-1626 -1630 0
-1626 -1631 0
-1626 -1632 0
-1626 -1633 0
-1626 -1634 0
-1626 -1635 0
-1626 -1636 0
-1626 -1637 0
-1626 -1638 0
-1626 -1639 0
-1626 -1640 0
-1626 -1641 0
-1626 -1642 0
-1626 -1643 0
-1626 -1644 0
-1626 -1645 0
-1626 -1646 0
-1626 -1647 0
-1626 -1648 0
-1626 -1649 0
-1626 -1650 0
-1626 -1651 0
-1626 -1652 0
-1626 -1653 0
-1626 -1654 0
-1626 -1655 0
-1626 -1656 0
-1626 -1657 0
-1626 -1658 0
-1626 -1659 0
-1626 -1660 0
-1626 -1661 0
-1626 -1662 0
-1627 -1628 0
-1627 -1629 0
-1627 -1630 0
-1627 -1631 0
-1627 -1632 0
-1627 -1633 0
-1627 -1634 0
-1627 -1635 0
-1627 -1636 0
-1627 -1637 0
-1627 -1638 0
-1627 -1639 0
-1627 -1640 0
-1627 -1641 0
-1627 -1642 0
-1627 -1643 0
-1627 -1644 0
-1627 -1645 0
-1627 -1646 0
-1627 -1647 0
-1627 -1648 0
-1627 -1649 0
-1627 -1650 0
-1627 -1651 0
-1627 -1652 0
-1627 -1653 0
-1627 -1654 0
-1627 -1655 0
-1627 -1656 0
-1627 -1657 0
-1627 -1658 0
-1627 -1659 0
-1627 -1660 0
-1627 -1661 0
-1627 -1662 0
-1628 -1629 0
-1628 -1630 0
-1628 -1631 0
-1628 -1632 0
-1628 -1633 0
-1628 -1634 0
-1628 -1635 0
-1628 -1636 0
-1628 -1637 0
-1628 -1638 0
-1628 -1639 0
-1628 -1640 0
-1628 -1641 0
-1628 -1642 0
-1628 -1643 0
-1628 -1644 0
-1628 -1645 0
-1628 -1646 0
-1628 -1647 0
-1628 -1648 0
-1628 -1649 0
-1628 -1650 0
-1628 -1651 0
-1628 -1652 0
-1628 -1653 0
-1628 -1654 0
-1628 -1655 0
-1628 -1656 0
-1628 -1657 0
-1628 -1658 0
-1628 -1659 0
-1628 -1660 0
-1628 -1661 0
-1628 -1662 0
-1629 -1630 0
-1629 -1631 0
-1629 -1632 0
-1629 -1633 0
-1629 -1634 0
-1629 -1635 0
-1629 -1636 0
-1629 -1637 0
-1629 -1638 0
-1629 -1639 0
-1629 -1640 0
-1629 -1641 0
-1629 -1642 0
-1629 -1643 0
-1629 -1644 0
-1629 -1645 0
-1629 -1646 0
-1629 -1647 0
-1629 -1648 0
-1629 -1649 0
-1629 -1650 0
-1629 -1651 0
-1629 -1652 0
-1629 -1653 0
-1629 -1654 0
-1629 -1655 0
-1629 -1656 0
-1629 -1657 0
-1629 -1658 0
-1629 -1659 0
-1629 -1660 0
-1629 -1661 0
-1629 -1662 0
-1630 -1631 0
-1630 -1632 0
-1630 -1633 0
-1630 -1634 0
-1630 -1635 0
-1630 -1636 0
-1630 -1637 0
-1630 -1638 0
-1630 -1639 0
-1630 -1640 0
-1630 -1641 0
-1630 -1642 0
-1630 -1643 0
-1630 -1644 0
-1630 -1645 0
-1630 -1646 0
-1630 -1647 0
-1630 -1648 0
-1630 -1649 0
-1630 -1650 0
-1630 -1651 0
-1630 -1652 0
-1630 -1653 0
-1630 -1654 0
-1630 -1655 0
-1630 -1656 0
-1630 -1657 0
-1630 -1658 0
-1630 -1659 0
-1630 -1660 0
-1630 -1661 0
-1630 -1662 0
-1631 -1632 0
-1631 -1633 0
-1631 -1634 0
-1631 -1635 0
-1631 -1636 0
-1631 -1637 0
-1631 -1638 0
-1631 -1639 0
-1631 -1640 0
-1631 -1641 0
-1631 -1642 0
-1631 -1643 0
-1631 -1644 0
-1631 -1645 0
-1631 -1646 0
-1631 -1647 0
-1631 -1648 0
-1631 -1649 0
-1631 -1650 0
-1631 -1651 0
-1631 -1652 0
-1631 -1653 0
-1631 -1654 0
-1631 -1655 0
-1631 -1656 0
-1631 -1657 0
-1631 -1658 0
-1631 -1659 0
-1631 -1660 0
-1631 -1661 0
-1631 -1662 0
-1632 -1633 0
-1632 -1634 0
-1632 -1635 0
-1632 -1636 0
-1632 -1637 0
-1632 -1638 0
-1632 -1639 0
-1632 -1640 0
-1632 -1641 0
-1632 -1642 0
-1632 -1643 0
-1632 -1644 0
-1632 -1645 0
-1632 -1646 0
-1632 -1647 0
-1632 -1648 0
-1632 -1649 0
-1632 -1650 0
-1632 -1651 0
-1632 -1652 0
-1632 -1653 0
-1632 -1654 0
-1632 -1655 0
-1632 -1656 0
-1632 -1657 0
-1632 -1658 0
-1632 -1659 0
-1632 -1660 0
-1632 -1661 0
-1632 -1662 0
-1633 -1634 0
-1633 -1635 0
-1633 -1636 0
-1633 -1637 0
-1633 -1638 0
-1633 -1639 0
-1633 -1640 0
-1633 -1641 0
-1633 -1642 0
-1633 -1643 0
-1633 -1644 0
-1633 -1645 0
-1633 -1646 0
-1633 -1647 0
-1633 -1648 0
-1633 -1649 0
-1633 -1650 0
-1633 -1651 0
-1633 -1652 0
-1633 -1653 0
-1633 -1654 0
-1633 -1655 0
-1633 -1656 0
-1633 -1657 0
-1633 -1658 0
-1633 -1659 0
-1633 -1660 0
-1633 -1661 0
-1633 -1662 0
-1634 -1635 0
-1634 -1636 0
-1634 -1637 0
-1634 -1638 0
-1634 -1639 0
-1634 -1640 0
-1634 -1641 0
-1634 -1642 0
-1634 -1643 0
-1634 -1644 0
-1634 -1645 0
-1634 -1646 0
-1634 -1647 0
-1634 -1648 0
-1634 -1649 0
-1634 -1650 0
-1634 -1651 0
-1634 -1652 0
-1634 -1653 0
-1634 -1654 0
-1634 -1655 0
-1634 -1656 0
-1634 -1657 0
-1634 -1658 0
-1634 -1659 0
-1634 -1660 0
-1634 -1661 0
-1634 -1662 0
-1635 -1636 0
-1635 -1637 0
-1635 -1638 0
-1635 -1639 0
-1635 -1640 0
-1635 -1641 0
-1635 -1642 0
-1635 -1643 0
-1635 -1644 0
-1635 -1645 0
-1635 -1646 0
-1635 -1647 0
-1635 -1648 0
-1635 -1649 0
-1635 -1650 0
-1635 -1651 0
-1635 -1652 0
-1635 -1653 0
-1635 -1654 0
-1635 -1655 0
-1635 -1656 0
-1635 -1657 0
-1635 -1658 0
-1635 -1659 0
-1635 -1660 0
-1635 -1661 0
-1635 -1662 0
-1636 -1637 0
-1636 -1638 0
-1636 -1639 0
-1636 -1640 0
-1636 -1641 0
-1636 -1642 0
-1636 -1643 0
-1636 -1644 0
-1636 -1645 0
-1636 -1646 0
-1636 -1647 0
-1636 -1648 0
-1636 -1649 0
-1636 -1650 0
-1636 -1651 0
-1636 -1652 0
-1636 -1653 0
-1636 -1654 0
-1636 -1655 0
-1636 -1656 0
-1636 -1657 0
-1636 -1658 0
-1636 -1659 0
-1636 -1660 0
-1636 -1661 0
-1636 -1662 0
-1637 -1638 0
-1637 -1639 0
-1637 -1640 0
-1637 -1641 0
-1637 -1642 0
-1637 -1643 0
-1637 -1644 0
-1637 -1645 0
-1637 -1646 0
-1637 -1647 0
-1637 -1648 0
-1637 -1649 0
-1637 -1650 0
-1637 -1651 0
-1637 -1652 0
-1637 -1653 0
-1637 -1654 0
-1637 -1655 0
-1637 -1656 0
-1637 -1657 0
-1637 -1658 0
-1637 -1659 0
-1637 -1660 0
-1637 -1661 0
-1637 -1662 0
-1638 -1639 0
-1638 -1640 0
-1638 -1641 0
-1638 -1642 0
-1638 -1643 0
-1638 -1644 0
-1638 -1645 0
-1638 -1646 0
-1638 -1647 0
-1638 -1648 0
-1638 -1649 0
-1638 -1650 0
-1638 -1651 0
-1638 -1652 0
-1638 -1653 0
-1638 -1654 0
-1638 -1655 0
-1638 -1656 0
-1638 -1657 0
-1638 -1658 0
-1638 -1659 0
-1638 -1660 0
-1638 -1661 0
-1638 -1662 0
-1639 -1640 0
-1639 -1641 0
-1639 -1642 0
-1639 -1643 0
-1639 -1644 0
-1639 -1645 0
-1639 -1646 0
-1639 -1647 0
-1639 -1648 0
-1639 -1649 0
-1639 -1650 0
-1639 -1651 0
-1639 -1652 0
-1639 -1653 0
-1639 -1654 0
-1639 -1655 0
-1639 -1656 0
-1639 -1657 0
-1639 -1658 0
-1639 -1659 0
-1639 -1660 0
-1639 -1661 0
-1639 -1662 0
-1640 -1641 0
-1640 -1642 0
-1640 -1643 0
-1640 -1644 0
-1640 -1645 0
-1640 -1646 0
-1640 -1647 0
-1640 -1648 0
-1640 -1649 0
-1640 -1650 0
-1640 -1651 0
-1640 -1652 0
-1640 -1653 0
-1640 -1654 0
-1640 -1655 0
-1640 -1656 0
-1640 -1657 0
-1640 -1658 0
-1640 -1659 0
-1640 -1660 0
-1640 -1661 0
-1640 -1662 0
-1641 -1642 0
-1641 -1643 0
-1641 -1644 0
-1641 -1645 0
-1641 -1646 0
-1641 -1647 0
-1641 -1648 0
-1641 -1649 0
-1641 -1650 0
-1641 -1651 0
-1641 -1652 0
-1641 -1653 0
-1641 -1654 0
-1641 -1655 0
-1641 -1656 0
-1641 -1657 0
-1641 -1658 0
-1641 -1659 0
-1641 -1660 0
-1641 -1661 0
-1641 -1662 0
-1642 -1643 0
-1642 -1644 0
-1642 -1645 0
-1642 -1646 0
-1642 -1647 0
-1642 -1648 0
-1642 -1649 0
-1642 -1650 0
-1642 -1651 0
-1642 -1652 0
-1642 -1653 0
-1642 -1654 0
-1642 -1655 0
-1642 -1656 0
-1642 -1657 0
-1642 -1658 0
-1642 -1659 0
-1642 -1660 0
-1642 -1661 0
-1642 -1662 0
-1643 -1644 0
-1643 -1645 0
-1643 -1646 0
-1643 -1647 0
-1643 -1648 0
-1643 -1649 0
-1643 -1650 0
-1643 -1651 0
-1643 -1652 0
-1643 -1653 0
-1643 -1654 0
-1643 -1655 0
-1643 -1656 0
-1643 -1657 0
-1643 -1658 0
-1643 -1659 0
-1643 -1660 0
-1643 -1661 0
-1643 -1662 0
-1644 -1645 0
-1644 -1646 0
-1644 -1647 0
-1644 -1648 0
-1644 -1649 0
-1644 -1650 0
-1644 -1651 0
-1644 -1652 0
-1644 -1653 0
-1644 -1654 0
-1644 -1655 0
-1644 -1656 0
-1644 -1657 0
-1644 -1658 0
-1644 -1659 0
-1644 -1660 0
-1644 -1661 0
-1644 -1662 0
-1645 -1646 0
-1645 -1647 0
-1645 -1648 0
-1645 -1649 0
-1645 -1650 0
-1645 -1651 0
-1645 -1652 0
-1645 -1653 0
-1645 -1654 0
-1645 -1655 0
-1645 -1656 0
-1645 -1657 0
-1645 -1658 0
-1645 -1659 0
-1645 -1660 0
-1645 -1661 0
-1645 -1662 0
-1646 -1647 0
-1646 -1648 0
-1646 -1649 0
-1646 -1650 0
-1646 -1651 0
-1646 -1652 0
-1646 -1653 0
-1646 -1654 0
-1646 -1655 0
-1646 -1656 0
-1646 -1657 0
-1646 -1658 0
-1646 -1659 0
-1646 -1660 0
-1646 -1661 0
-1646 -1662 0
-1647 -1648 0
-1647 -1649 0
-1647 -1650 0
-1647 -1651 0
-1647 -1652 0
-1647 -1653 0
-1647 -1654 0
-1647 -1655 0
-1647 -1656 0
-1647 -1657 0
-1647 -1658 0
-1647 -1659 0
-1647 -1660 0
-1647 -1661 0
-1647 -1662 0
-1648 -1649 0
-1648 -1650 0
-1648 -1651 0
-1648 -1652 0
-1648 -1653 0
-1648 -1654 0
-1648 -1655 0
-1648 -1656 0
-1648 -1657 0
-1648 -1658 0
-1648 -1659 0
-1648 -1660 0
-1648 -1661 0
-1648 -1662 0
-1649 -1650 0
-1649 -1651 0
-1649 -1652 0
-1649 -1653 0
-1649 -1654 0
-1649 -1655 0
-1649 -1656 0
-1649 -1657 0
-1649 -1658 0
-1649 -1659 0
-1649 -1660 0
-1649 -1661 0
-1649 -1662 0
-1650 -1651 0
-1650 -1652 0
-1650 -1653 0
-1650 -1654 0
-1650 -1655 0
-1650 -1656 0
-1650 -1657 0
-1650 -1658 0
-1650 -1659 0
-1650 -1660 0
-1650 -1661 0
-1650 -1662 0
-1651 -1652 0
-1651 -1653 0
-1651 -1654 0
-1651 -1655 0
-1651 -1656 0
-1651 -1657 0
-1651 -1658 0
-1651 -1659 0
-1651 -1660 0
-1651 -1661 0
-1651 -1662 0
-1652 -1653 0
-1652 -1654 0
-1652 -1655 0
-1652 -1656 0
-1652 -1657 0
-1652 -1658 0
-1652 -1659 0
-1652 -1660 0
-1652 -1661 0
-1652 -1662 0
-1653 -1654 0
-1653 -1655 0
-1653 -1656 0
-1653 -1657 0
-1653 -1658 0
-1653 -1659 0
-1653 -1660 0
-1653 -1661 0
-1653 -1662 0
-1654 -1655 0
-1654 -1656 0
-1654 -1657 0
-1654 -1658 0
-1654 -1659 0
-1654 -1660 0
-1654 -1661 0
-1654 -1662 0
-1655 -1656 0
-1655 -1657 0
-1655 -1658 0
-1655 -1659 0
-1655 -1660 0
-1655 -1661 0
-1655 -1662 0
-1656 -1657 0
-1656 -1658 0
-1656 -1659 0
-1656 -1660 0
-1656 -1661 0
-1656 -1662 0
-1657 -1658 0
-1657 -1659 0
-1657 -1660 0
-1657 -1661 0
-1657 -1662 0
-1658 -1659 0
-1658 -1660 0
-1658 -1661 0
-1658 -1662 0
-1659 -1660 0
-1659 -1661 0
-1659 -1662 0
-1660 -1661 0
-1660 -1662 0
-1661 -1662 0
1663 1664 1665 1666 1667 1668 1669 1670 1671 1672 1673 1674 1675 1676 1677 1678 1679 1680 1681 1682 1683 1684 1685 1686 1687 1688 1689 1690 1691 1692 1693 1694 1695 1696 1697 1698 1699 1700 1701 1702 1703 1704 1705 1706 1707 1708 1709 1710 1711 1712 1713 1714 1715 1716 1717 1718 1719 1720 1721 1722 1723 1724 1725 1726 1727 1728 1729 1730 1731 1732 1733 1734 1735 1736 1737 1738 1739 1740 1741 1742 1743 1744 1745 1746 0
-1663 -1664 0
-1663 -1665 0
-1663 -1666 0
-1663 -1667 0
-1663 -1668 0
-1663 -1669 0
-1663 -1670 0
-1663 -1671 0
-1663 -1672 0
-1663 -1673 0
-1663 -1674 0
-1663 -1675 0
-1663 -1676 0
-1663 -1677 0
-1663 -1678 0
-1663 -1679 0
-1663 -1680 0
-1663 -1681 0
-1663 -1682 0
-1663 -1683 0
-1663 -1684 0
-1663 -1685 0
-1663 -1686 0
-1663 -1687 0
-1663 -1688 0
-1663 -1689 0
-1663 -1690 0
-1663 -1691 0
-1663 -1692 0
-1663 -1693 0
-1663 -1694 0
-1663 -1695 0
-1663 -1696 0
-1663 -1697 0
-1663 -1698 0
-1663 -1699 0
-1663 -1700 0
-1663 -1701 0
-1663 -1702 0
-1663 -1703 0
-1663 -1704 0
-1663 -1705 0
-1663 -1706 0
-1663 -1707 0
-1663 -1708 0
-1663 -1709 0
-1663 -1710 0
-1663 -1711 0
-1663 -1712 0
-1663 -1713 0
-1663 -1714 0
-1663 -1715 0
-1663 -1716 0
-1663 -1717 0
-1663 -1718 0
-1663 -1719 0
-1663 -1720 0
-1663 -1721 0
-1663 -1722 0
-1663 -1723 0
-1663 -1724 0
-1663 -1725 0
-1663 -1726 0
-1663 -1727 0
-1663 -1728 0
-1663 -1729 0
-1663 -1730 0
-1663 -1731 0
-1663 -1732 0
-1663 -1733 0
-1663 -1734 0
-1663 -1735 0
-1663 -1736 0
-1663 -1737 0
-1663 -1738 0
-1663 -1739 0
-1663 -1740 0
-1663 -1741 0
-1663 -1742 0
-1663 -1743 0
-1663 -1744 0
-1663 -1745 0
-1663 -1746 0
-1664 -1665 0
-1664 -1666 0
-1664 -1667 0
-1664 -1668 0
-1664 -1669 0
-1664 -1670 0
-1664 -1671 0
-1664 -1672 0
-1664 -1673 0
-1664 -1674 0
-1664 -1675 0
-1664 -1676 0
-1664 -1677 0
-1664 -1678 0
-1664 -1679 0
-1664 -1680 0
-1664 -1681 0
-1664 -1682 0
-1664 -1683 0
-1664 -1684 0
-1664 -1685 0
-1664 -1686 0
-1664 -1687 0
-1664 -1688 0
-1664 -1689 0
-1664 -1690 0
-1664 -1691 0
-1664 -1692 0
-1664 -1693 0
-1664 -1694 0
-1664 -1695 0
-1664 -1696 0
-1664 -1697 0
-1664 -1698 0
-1664 -1699 0
-1664 -1700 0
-1664 -1701 0
-1664 -1702 0
-1664 -1703 0
-1664 -1704 0
-1664 -1705 0
-1664 -1706 0
-1664 -1707 0
-1664 -1708 0
-1664 -1709 0
-1664 -1710 0
-1664 -1711 0
-1664 -1712 0
-1664 -1713 0
-1664 -1714 0
-1664 -1715 0
-1664 -1716 0
-1664 -1717 0
-1664 -1718 0
-1664 -1719 0
-1664 -1720 0
-1664 -1721 0
-1664 -1722 0
-1664 -1723 0
-1664 -1724 0
-1664 -1725 0
-1664 -1726 0
-1664 -1727 0
-1664 -1728 0
-1664 -1729 0
-1664 -1730 0
-1664 -1731 0
-1664 -1732 0
-1664 -1733 0
-1664 -1734 0
-1664 -1735 0
-1664 -1736 0
-1664 -1737 0
-1664 -1738 0
-1664 -1739 0
-1664 -1740 0
-1664 -1741 0
-1664 -1742 0
-1664 -1743 0
-1664 -1744 0
-1664 -1745 0
-1664 -1746 0
-1665 -1666 0
-1665 -1667 0
-1665 -1668 0
-1665 -1669 0
-1665 -1670 0
-1665 -1671 0
-1665 -1672 0
-1665 -1673 0
-1665 -1674 0
-1665 -1675 0
-1665 -1676 0
-1665 -1677 0
-1665 -1678 0
-1665 -1679 0
-1665 -1680 0
-1665 -1681 0
-1665 -1682 0
-1665 -1683 0
-1665 -1684 0
-1665 -1685 0
-1665 -1686 0
-1665 -1687 0
-1665 -1688 0
-1665 -1689 0
-1665 -1690 0
-1665 -1691 0
-1665 -1692 0
-1665 -1693 0
-1665 -1694 0
-1665 -1695 0
-1665 -1696 0
-1665 -1697 0
-1665 -1698 0
-1665 -1699 0
-1665 -1700 0
-1665 -1701 0
-1665 -1702 0
-1665 -1703 0
-1665 -1704 0
-1665 -1705 0
-1665 -1706 0
-1665 -1707 0
-1665 -1708 0
-1665 -1709 0
-1665 -1710 0
-1665 -1711 0
-1665 -1712 0
-1665 -1713 0
-1665 -1714 0
-1665 -1715 0
-1665 -1716 0
-1665 -1717 0
-1665 -1718 0
-1665 -1719 0
-1665 -1720 0
-1665 -1721 0
-1665 -1722 0
-1665 -1723 0
-1665 -1724 0
-1665 -1725 0
-1665 -1726 0
-1665 -1727 0
-1665 -1728 0
-1665 -1729 0
-1665 -1730 0
-1665 -1731 0
-1665 -1732 0
-1665 -1733 0
-1665 -1734 0
-1665 -1735 0
-1665 -1736 0
-1665 -1737 0
-1665 -1738 0
-1665 -1739 0
-1665 -1740 0
-1665 -1741 0
-1665 -1742 0
-1665 -1743 0
-1665 -1744 0
-1665 -1745 0
-1665 -1746 0
-1666 -1667 0
-1666 -1668 0
-1666 -1669 0
-1666 -1670 0
-1666 -1671 0
-1666 -1672 0
-1666 -1673 0
-1666 -1674 0
-1666 -1675 0
-1666 -1676 0
-1666 -1677 0
-1666 -1678 0
-1666 -1679 0
-1666 -1680 0
-1666 -1681 0
-1666 -1682 0
-1666 -1683 0
-1666 -1684 0
-1666 -1685 0
-1666 -1686 0
-1666 -1687 0
-1666 -1688 0
-1666 -1689 0
-1666 -1690 0
-1666 -1691 0
-1666 -1692 0
-1666 -1693 0
-1666 -1694 0
-1666 -1695 0
-1666 -1696 0
-1666 -1697 0
-1666 -1698 0
-1666 -1699 0
-1666 -1700 0
-1666 -1701 0
-1666 -1702 0
-1666 -1703 0
-1666 -1704 0
-1666 -1705 0
-1666 -1706 0
-1666 -1707 0
-1666 -1708 0
-1666 -1709 0
-1666 -1710 0
-1666 -1711 0
-1666 -1712 0
-1666 -1713 0
-1666 -1714 0
-1666 -1715 0
-1666 -1716 0
-1666 -1717 0
-1666 -1718 0
-1666 -1719 0
-1666 -1720 0
-1666 -1721 0
-1666 -1722 0
-1666 -1723 0
-1666 -1724 0
-1666 -1725 0
-1666 -1726 0
-1666 -1727 0
-1666 -1728 0
-1666 -1729 0
-1666 -1730 0
-1666 -1731 0
-1666 -1732 0
-1666 -1733 0
-1666 -1734 0
-1666 -1735 0
-1666 -1736 0
-1666 -1737 0
-1666 -1738 0
-1666 -1739 0
-1666 -1740 0
-1666 -1741 0
-1666 -1742 0
-1666 -1743 0
-1666 -1744 0
-1666 -1745 0
-1666 -1746 0
-1667 -1668 0
-1667 -1669 0
-1667 -1670 0
-1667 -1671 0
-1667 -1672 0
-1667 -1673 0
-1667 -1674 0
-1667 -1675 0
-1667 -1676 0
-1667 -1677 0
-1667 -1678 0
-1667 -1679 0
-1667 -1680 0
-1667 -1681 0
-1667 -1682 0
-1667 -1683 0
-1667 -1684 0
-1667 -1685 0
-1667 -1686 0
-1667 -1687 0
-1667 -1688 0
-1667 -1689 0
-1667 -1690 0
-1667 -1691 0
-1667 -1692 0
-1667 -1693 0
-1667 -1694 0
-1667 -1695 0
-1667 -1696 0
-1667 -1697 0
-1667 -1698 0
-1667 -1699 0
-1667 -1700 0
-1667 -1701 0
-1667 -1702 0
-1667 -1703 0
-1667 -1704 0
-1667 -1705 0
-1667 -1706 0
-1667 -1707 0
-1667 -1708 0
-1667 -1709 0
-1667 -1710 0
-1667 -1711 0
-1667 -1712 0
-1667 -1713 0
-1667 -1714 0
-1667 -1715 0
-1667 -1716 0
-1667 -1717 0
-1667 -1718 0
-1667 -1719 0
-1667 -1720 0
-1667 -1721 0
-1667 -1722 0
-1667 -1723 0
-1667 -1724 0
-1667 -1725 0
-1667 -1726 0
-1667 -1727 0
-1667 -1728 0
-1667 -1729 0
-1667 -1730 0
-1667 -1731 0
-1667 -1732 0
-1667 -1733 0
-1667 -1734 0
-1667 -1735 0
-1667 -1736 0
-1667 -1737 0
-1667 -1738 0
-1667 -1739 0
-1667 -1740 0
-1667 -1741 0
-1667 -1742 0
-1667 -1743 0
-1667 -1744 0
-1667 -1745 0
-1667 -1746 0
-1668 -1669 0
-1668 -1670 0
-1668 -1671 0
-1668 -1672 0
-1668 -1673 0
-1668 -1674 0
-1668 -1675 0
-1668 -1676 0
-1668 -1677 0
-1668 -1678 0
-1668 -1679 0
-1668 -1680 0
-1668 -1681 0
-1668 -1682 0
-1668 -1683 0
-1668 -1684 0
-1668 -1685 0
-1668 -1686 0
-1668 -1687 0
-1668 -1688 0
-1668 -1689 0
-1668 -1690 0
-1668 -1691 0
-1668 -1692 0
-1668 -1693 0
-1668 -1694 0
-1668 -1695 0
-1668 -1696 0
-1668 -1697 0
-1668 -1698 0
-1668 -1699 0
-1668 -1700 0
-1668 -1701 0
-1668 -1702 0
-1668 -1703 0
-1668 -1704 0
-1668 -1705 0
-1668 -1706 0
-1668 -1707 0
-1668 -1708 0
-1668 -1709 0
-1668 -1710 0
-1668 -1711 0
-1668 -1712 0
-1668 -1713 0
-1668 -1714 0
-1668 -1715 0
-1668 -1716 0
-1668 -1717 0
-1668 -1718 0
-1668 -1719 0
-1668 -1720 0
-1668 -1721 0
-1668 -1722 0
-1668 -1723 0
-1668 -1724 0
-1668 -1725 0
-1668 -1726 0
-1668 -1727 0
-1668 -1728 0
-1668 -1729 0
-1668 -1730 0
-1668 -1731 0
-1668 -1732 0
-1668 -1733 0
-1668 -1734 0
-1668 -1735 0
-1668 -1736 0
-1668 -1737 0
-1668 -1738 0
-1668 -1739 0
-1668 -1740 0
-1668 -1741 0
-1668 -1742 0
-1668 -1743 0
-1668 -1744 0
-1668 -1745 0
-1668 -1746 0
-1669 -1670 0
-1669 -1671 0
-1669 -1672 0
-1669 -1673 0
-1669 -1674 0
-1669 -1675 0
-1669 -1676 0
-1669 -1677 0
-1669 -1678 0
-1669 -1679 0
-1669 -1680 0
-1669 -1681 0
-1669 -1682 0
-1669 -1683 0
-1669 -1684 0
-1669 -1685 0
-1669 -1686 0
-1669 -1687 0
-1669 -1688 0
-1669 -1689 0
-1669 -1690 0
-1669 -1691 0
-1669 -1692 0
-1669 -1693 0
-1669 -1694 0
-1669 -1695 0
-1669 -1696 0
-1669 -1697 0
-1669 -1698 0
-1669 -1699 0
-1669 -1700 0
-1669 -1701 0
-1669 -1702 0
-1669 -1703 0
-1669 -1704 0
-1669 -1705 0
-1669 -1706 0
-1669 -1707 0
-1669 -1708 0
-1669 -1709 0
-1669 -1710 0
-1669 -1711 0
-1669 -1712 0
-1669 -1713 0
-1669 -1714 0
-1669 -1715 0
-1669 -1716 0
-1669 -1717 0
-1669 -1718 0
-1669 -1719 0
-1669 -1720 0
-1669 -1721 0
-1669 -1722 0
-1669 -1723 0
-1669 -1724 0
-1669 -1725 0
-1669 -1726 0
-1669 -1727 0
-1669 -1728 0
-1669 -1729 0
-1669 -1730 0
-1669 -1731 0
-1669 -1732 0
-1669 -1733 0
-1669 -1734 0
-1669 -1735 0
-1669 -1736 0
-1669 -1737 0
-1669 -1738 0
-1669 -1739 0
-1669 -1740 0
-1669 -1741 0
-1669 -1742 0
-1669 -1743 0
-1669 -1744 0
-1669 -1745 0
-1669 -1746 0
-1670 -1671 0
-1670 -1672 0
-1670 -1673 0
-1670 -1674 0
-1670 -1675 0
-1670 -1676 0
-1670 -1677 0
-1670 -1678 0
-1670 -1679 0
-1670 -1680 0
-1670 -1681 0
-1670 -1682 0
-1670 -1683 0
-1670 -1684 0
-1670 -1685 0
-1670 -1686 0
-1670 -1687 0
-1670 -1688 0
-1670 -1689 0
-1670 -1690 0
-1670 -1691 0
-1670 -1692 0
-1670 -1693 0
-1670 -1694 0
-1670 -1695 0
-1670 -1696 0
-1670 -1697 0
-1670 -1698 0
-1670 -1699 0
-1670 -1700 0
-1670 -1701 0
-1670 -1702 0
-1670 -1703 0
-1670 -1704 0
-1670 -1705 0
-1670 -1706 0
-1670 -1707 0
-1670 -1708 0
-1670 -1709 0
-1670 -1710 0
-1670 -1711 0
-1670 -1712 0
-1670 -1713 0
-1670 -1714 0
-1670 -1715 0
-1670 -1716 0
-1670 -1717 0
-1670 -1718 0
-1670 -1719 0
-1670 -1720 0
-1670 -1721 0
-1670 -1722 0
-1670 -1723 0
-1670 -1724 0
-1670 -1725 0
-1670 -1726 0
-1670 -1727 0
-1670 -1728 0
-1670 -1729 0
-1670 -1730 0
-1670 -1731 0
-1670 -1732 0
-1670 -1733 0
-1670 -1734 0
-1670 -1735 0
-1670 -1736 0
-1670 -1737 0
-1670 -1738 0
-1670 -1739 0
-1670 -1740 0
-1670 -1741 0
-1670 -1742 0
-1670 -1743 0
-1670 -1744 0
-1670 -1745 0
-1670 -1746 0
-1671 -1672 0
-1671 -1673 0
-1671 -1674 0
-1671 -1675 0
-1671 -1676 0
-1671 -1677 0
-1671 -1678 0
-1671 -1679 0
-1671 -1680 0
-1671 -1681 0
-1671 -1682 0
-1671 -1683 0
-1671 -1684 0
-1671 -1685 0
-1671 -1686 0
-1671 -1687 0
-1671 -1688 0
-1671 -1689 0
-1671 -1690 0
-1671 -1691 0
-1671 -1692 0
-1671 -1693 0
-1671 -1694 0
-1671 -1695 0
-1671 -1696 0
-1671 -1697 0
-1671 -1698 0
-1671 -1699 0
-1671 -1700 0
-1671 -1701 0
-1671 -1702 0
-1671 -1703 0
-1671 -1704 0
-1671 -1705 0
-1671 -1706 0
-1671 -1707 0
-1671 -1708 0
-1671 -1709 0
-1671 -1710 0
-1671 -1711 0
-1671 -1712 0
-1671 -1713 0
-1671 -1714 0
-1671 -1715 0
-1671 -1716 0
-1671 -1717 0
-1671 -1718 0
-1671 -1719 0
-1671 -1720 0
-1671 -1721 0
-1671 -1722 0
-1671 -1723 0
-1671 -1724 0
-1671 -1725 0
-1671 -1726 0
-1671 -1727 0
-1671 -1728 0
-1671 -1729 0
-1671 -1730 0
-1671 -1731 0
-1671 -1732 0
-1671 -1733 0
-1671 -1734 0
-1671 -1735 0
-1671 -1736 0
-1671 -1737 0
-1671 -1738 0
-1671 -1739 0
-1671 -1740 0
-1671 -1741 0
-1671 -1742 0
-1671 -1743 0
-1671 -1744 0
-1671 -1745 0
-1671 -1746 0
-1672 -1673 0
-1672 -1674 0
-1672 -1675 0
-1672 -1676 0
-1672 -1677 0
-1672 -1678 0
-1672 -1679 0
-1672 -1680 0
-1672 -1681 0
-1672 -1682 0
-1672 -1683 0
-1672 -1684 0
-1672 -1685 0
-1672 -1686 0
-1672 -1687 0
-1672 -1688 0
-1672 -1689 0
-1672 -1690 0
-1672 -1691 0
-1672 -1692 0
-1672 -1693 0
-1672 -1694 0
-1672 -1695 0
-1672 -1696 0
-1672 -1697 0
-1672 -1698 0
-1672 -1699 0
-1672 -1700 0
-1672 -1701 0
-1672 -1702 0
-1672 -1703 0
-1672 -1704 0
-1672 -1705 0
-1672 -1706 0
-1672 -1707 0
-1672 -1708 0
-1672 -1709 0
-1672 -1710 0
-1672 -1711 0
-1672 -1712 0
-1672 -1713 0
-1672 -1714 0
-1672 -1715 0
-1672 -1716 0
-1672 -1717 0
-1672 -1718 0
-1672 -1719 0
-1672 -1720 0
-1672 -1721 0
-1672 -1722 0
-1672 -1723 0
-1672 -1724 0
-1672 -1725 0
-1672 -1726 0
-1672 -1727 0
-1672 -1728 0
-1672 -1729 0
-1672 -1730 0
-1672 -1731 0
-1672 -1732 0
-1672 -1733 0
-1672 -1734 0
-1672 -1735 0
-1672 -1736 0
-1672 -1737 0
-1672 -1738 0
-1672 -1739 0
-1672 -1740 0
-1672 -1741 0
-1672 -1742 0
-1672 -1743 0
-1672 -1744 0
-1672 -1745 0
-1672 -1746 0
-1673 -1674 0
-1673 -1675 0
-1673 -1676 0
-1673 -1677 0
-1673 -1678 0
-1673 -1679 0
-1673 -1680 0
-1673 -1681 0
-1673 -1682 0
-1673 -1683 0
-1673 -1684 0
-1673 -1685 0
-1673 -1686 0
-1673 -1687 0
-1673 -1688 0
-1673 -1689 0
-1673 -1690 0
-1673 -1691 0
-1673 -1692 0
-1673 -1693 0
-1673 -1694 0
-1673 -1695 0
-1673 -1696 0
-1673 -1697 0
-1673 -1698 0
-1673 -1699 0
-1673 -1700 0
-1673 -1701 0
-1673 -1702 0
-1673 -1703 0
-1673 -1704 0
-1673 -1705 0
-1673 -1706 0
-1673 -1707 0
-1673 -1708 0
-1673 -1709 0
-1673 -1710 0
-1673 -1711 0
-1673 -1712 0
-1673 -1713 0
-1673 -1714 0
-1673 -1715 0
-1673 -1716 0
-1673 -1717 0
-1673 -1718 0
-1673 -1719 0
-1673 -1720 0
-1673 -1721 0
-1673 -1722 0
-1673 -1723 0
-1673 -1724 0
-1673 -1725 0
-1673 -1726 0
-1673 -1727 0
-1673 -1728 0
-1673 -1729 0
-1673 -1730 0
-1673 -1731 0
-1673 -1732 0
-1673 -1733 0
-1673 -1734 0
-1673 -1735 0
-1673 -1736 0
-1673 -1737 0
-1673 -1738 0
-1673 -1739 0
-1673 -1740 0
-1673 -1741 0
-1673 -1742 0
-1673 -1743 0
-1673 -1744 0
-1673 -1745 0
-1673 -1746 0
-1674 -1675 0
-1674 -1676 0
-1674 -1677 0
-1674 -1678 0
-1674 -1679 0
-1674 -1680 0
-1674 -1681 0
-1674 -1682 0
-1674 -1683 0
-1674 -1684 0
-1674 -1685 0
-1674 -1686 0
-1674 -1687 0
-1674 -1688 0
-1674 -1689 0
-1674 -1690 0
-1674 -1691 0
-1674 -1692 0
-1674 -1693 0
-1674 -1694 0
-1674 -1695 0
-1674 -1696 0
-1674 -1697 0
-1674 -1698 0
-1674 -1699 0
-1674 -1700 0
-1674 -1701 0
-1674 -1702 0
-1674 -1703 0
-1674 -1704 0
-1674 -1705 0
-1674 -1706 0
-1674 -1707 0
-1674 -1708 0
-1674 -1709 0
-1674 -1710 0
-1674 -1711 0
-1674 -1712 0
-1674 -1713 0
-1674 -1714 0
-1674 -1715 0
-1674 -1716 0
-1674 -1717 0
-1674 -1718 0
-1674 -1719 0
-1674 -1720 0
-1674 -1721 0
-1674 -1722 0
-1674 -1723 0
-1674 -1724 0
-1674 -1725 0
-1674 -1726 0
-1674 -1727 0
-1674 -1728 0
-1674 -1729 0
-1674 -1730 0
-1674 -1731 0
-1674 -1732 0
-1674 -1733 0
-1674 -1734 0
-1674 -1735 0
-1674 -1736 0
-1674 -1737 0
-1674 -1738 0
-1674 -1739 0
-1674 -1740 0
-1674 -1741 0
-1674 -1742 0
-1674 -1743 0
-1674 -1744 0
-1674 -1745 0
-1674 -1746 0
-1675 -1676 0
-1675 -1677 0
-1675 -1678 0
-1675 -1679 0
-1675 -1680 0
-1675 -1681 0
-1675 -1682 0
-1675 -1683 0
-1675 -1684 0
-1675 -1685 0
-1675 -1686 0
-1675 -1687 0
-1675 -1688 0
-1675 -1689 0
-1675 -1690 0
-1675 -1691 0
-1675 -1692 0
-1675 -1693 0
-1675 -1694 0
-1675 -1695 0
-1675 -1696 0
-1675 -1697 0
-1675 -1698 0
-1675 -1699 0
-1675 -1700 0
-1675 -1701 0
-1675 -1702 0
-1675 -1703 0
-1675 -1704 0
-1675 -1705 0
-1675 -1706 0
-1675 -1707 0
-1675 -1708 0
-1675 -1709 0
-1675 -1710 0
-1675 -1711 0
-1675 -1712 0
-1675 -1713 0
-1675 -1714 0
-1675 -1715 0
-1675 -1716 0
-1675 -1717 0
-1675 -1718 0
-1675 -1719 0
-1675 -1720 0
-1675 -1721 0
-1675 -1722 0
-1675 -1723 0
-1675 -1724 0
-1675 -1725 0
-1675 -1726 0
-1675 -1727 0
-1675 -1728 0
-1675 -1729 0
-1675 -1730 0
-1675 -1731 0
-1675 -1732 0
-1675 -1733 0
-1675 -1734 0
-1675 -1735 0
-1675 -1736 0
-1675 -1737 0
-1675 -1738 0
-1675 -1739 0
-1675 -1740 0
-1675 -1741 0
-1675 -1742 0
-1675 -1743 0
-1675 -1744 0
-1675 -1745 0
-1675 -1746 0
-1676 -1677 0
-1676 -1678 0
-1676 -1679 0
-1676 -1680 0
-1676 -1681 0
-1676 -1682 0
-1676 -1683 0
-1676 -1684 0
-1676 -1685 0
-1676 -1686 0
-1676 -1687 0
-1676 -1688 0
-1676 -1689 0
-1676 -1690 0
-1676 -1691 0
-1676 -1692 0
-1676 -1693 0
-1676 -1694 0
-1676 -1695 0
-1676 -1696 0
-1676 -1697 0
-1676 -1698 0
-1676 -1699 0
-1676 -1700 0
-1676 -1701 0
-1676 -1702 0
-1676 -1703 0
-1676 -1704 0
-1676 -1705 0
-1676 -1706 0
-1676 -1707 0
-1676 -1708 0
-1676 -1709 0
-1676 -1710 0
-1676 -1711 0
-1676 -1712 0
-1676 -1713 0
-1676 -1714 0
-1676 -1715 0
-1676 -1716 0
-1676 -1717 0
-1676 -1718 0
-1676 -1719 0
-1676 -1720 0
-1676 -1721 0
-1676 -1722 0
-1676 -1723 0
-1676 -1724 0
-1676 -1725 0
-1676 -1726 0
-1676 -1727 0
-1676 -1728 0
-1676 -1729 0
-1676 -1730 0
-1676 -1731 0
-1676 -1732 0
-1676 -1733 0
-1676 -1734 0
-1676 -1735 0
-1676 -1736 0
-1676 -1737 0
-1676 -1738 0
-1676 -1739 0
-1676 -1740 0
-1676 -1741 0
-1676 -1742 0
-1676 -1743 0
-1676 -1744 0
-1676 -1745 0
-1676 -1746 0
-1677 -1678 0
-1677 -1679 0
-1677 -1680 0
-1677 -1681 0
-1677 -1682 0
-1677 -1683 0
-1677 -1684 0
-1677 -1685 0
-1677 -1686 0
-1677 -1687 0
-1677 -1688 0
-1677 -1689 0
-1677 -1690 0
-1677 -1691 0
-1677 -1692 0
-1677 -1693 0
-1677 -1694 0
-1677 -1695 0
-1677 -1696 0
-1677 -1697 0
-1677 -1698 0
-1677 -1699 0
-1677 -1700 0
-1677 -1701 0
-1677 -1702 0
-1677 -1703 0
-1677 -1704 0
-1677 -1705 0
-1677 -1706 0
-1677 -1707 0
-1677 -1708 0
-1677 -1709 0
-1677 -1710 0
-1677 -1711 0
-1677 -1712 0
-1677 -1713 0
-1677 -1714 0
-1677 -1715 0
-1677 -1716 0
-1677 -1717 0
-1677 -1718 0
-1677 -1719 0
-1677 -1720 0
-1677 -1721 0
-1677 -1722 0
-1677 -1723 0
-1677 -1724 0
-1677 -1725 0
-1677 -1726 0
-1677 -1727 0
-1677 -1728 0
-1677 -1729 0
-1677 -1730 0
-1677 -1731 0
-1677 -1732 0
-1677 -1733 0
-1677 -1734 0
-1677 -1735 0
-1677 -1736 0
-1677 -1737 0
-1677 -1738 0
-1677 -1739 0
-1677 -1740 0
-1677 -1741 0
-1677 -1742 0
-1677 -1743 0
-1677 -1744 0
-1677 -1745 0
-1677 -1746 0
-1678 -1679 0
-1678 -1680 0
-1678 -1681 0
-1678 -1682 0
-1678 -1683 0
-1678 -1684 0
-1678 -1685 0
-1678 -1686 0
-1678 -1687 0
-1678 -1688 0
-1678 -1689 0
-1678 -1690 0
-1678 -1691 0
-1678 -1692 0
-1678 -1693 0
-1678 -1694 0
-1678 -1695 0
-1678 -1696 0
-1678 -1697 0
-1678 -1698 0
-1678 -1699 0
-1678 -1700 0
-1678 -1701 0
-1678 -1702 0
-1678 -1703 0
-1678 -1704 0
-1678 -1705 0
-1678 -1706 0
-1678 -1707 0
-1678 -1708 0
-1678 -1709 0
-1678 -1710 0
-1678 -1711 0
-1678 -1712 0
-1678 -1713 0
-1678 -1714 0
-1678 -1715 0
-1678 -1716 0
-1678 -1717 0
-1678 -1718 0
-1678 -1719 0
-1678 -1720 0
-1678 -1721 0
-1678 -1722 0
-1678 -1723 0
-1678 -1724 0
-1678 -1725 0
-1678 -1726 0
-1678 -1727 0
-1678 -1728 0
-1678 -1729 0
-1678 -1730 0
-1678 -1731 0
-1678 -1732 0
-1678 -1733 0
-1678 -1734 0
-1678 -1735 0
-1678 -1736 0
-1678 -1737 0
-1678 -1738 0
-1678 -1739 0
-1678 -1740 0
-1678 -1741 0
-1678 -1742 0
-1678 -1743 0
-1678 -1744 0
-1678 -1745 0
-1678 -1746 0
-1679 -1680 0
-1679 -1681 0
-1679 -1682 0
-1679 -1683 0
-1679 -1684 0
-1679 -1685 0
-1679 -1686 0
-1679 -1687 0
-1679 -1688 0
-1679 -1689 0
-1679 -1690 0
-1679 -1691 0
-1679 -1692 0
-1679 -1693 0
-1679 -1694 0
-1679 -1695 0
-1679 -1696 0
-1679 -1697 0
-1679 -1698 0
-1679 -1699 0
-1679 -1700 0
-1679 -1701 0
-1679 -1702 0
-1679 -1703 0
-1679 -1704 0
-1679 -1705 0
-1679 -1706 0
-1679 -1707 0
-1679 -1708 0
-1679 -1709 0
-1679 -1710 0
-1679 -1711 0
-1679 -1712 0
-1679 -1713 0
-1679 -1714 0
-1679 -1715 0
-1679 -1716 0
-1679 -1717 0
-1679 -1718 0
-1679 -1719 0
-1679 -1720 0
-1679 -1721 0
-1679 -1722 0
-1679 -1723 0
-1679 -1724 0
-1679 -1725 0
-1679 -1726 0
-1679 -1727 0
-1679 -1728 0
-1679 -1729 0
-1679 -1730 0
-1679 -1731 0
-1679 -1732 0
-1679 -1733 0
-1679 -1734 0
-1679 -1735 0
-1679 -1736 0
-1679 -1737 0
-1679 -1738 0
-1679 -1739 0
-1679 -1740 0
-1679 -1741 0
-1679 -1742 0
-1679 -1743 0
-1679 -1744 0
-1679 -1745 0
-1679 -1746 0
-1680 -1681 0
-1680 -1682 0
-1680 -1683 0
-1680 -1684 0
-1680 -1685 0
-1680 -1686 0
-1680 -1687 0
-1680 -1688 0
-1680 -1689 0
-1680 -1690 0
-1680 -1691 0
-1680 -1692 0
-1680 -1693 0
-1680 -1694 0
-1680 -1695 0
-1680 -1696 0
-1680 -1697 0
-1680 -1698 0
-1680 -1699 0
-1680 -1700 0
-1680 -1701 0
-1680 -1702 0
-1680 -1703 0
-1680 -1704 0
-1680 -1705 0
-1680 -1706 0
-1680 -1707 0
-1680 -1708 0
-1680 -1709 0
-1680 -1710 0
-1680 -1711 0
-1680 -1712 0
-1680 -1713 0
-1680 -1714 0
-1680 -1715 0
-1680 -1716 0
-1680 -1717 0
-1680 -1718 0
-1680 -1719 0
-1680 -1720 0
-1680 -1721 0
-1680 -1722 0
-1680 -1723 0
-1680 -1724 0
-1680 -1725 0
-1680 -1726 0
-1680 -1727 0
-1680 -1728 0
-1680 -1729 0
-1680 -1730 0
-1680 -1731 0
-1680 -1732 0
-1680 -1733 0
-1680 -1734 0
-1680 -1735 0
-1680 -1736 0
-1680 -1737 0
-1680 -1738 0
-1680 -1739 0
-1680 -1740 0
-1680 -1741 0
-1680 -1742 0
-1680 -1743 0
-1680 -1744 0
-1680 -1745 0
-1680 -1746 0
-1681 -1682 0
-1681 -1683 0
-1681 -1684 0
-1681 -1685 0
-1681 -1686 0
-1681 -1687 0
-1681 -1688 0
-1681 -1689 0
-1681 -1690 0
-1681 -1691 0
-1681 -1692 0
-1681 -1693 0
-1681 -1694 0
-1681 -1695 0
-1681 -1696 0
-1681 -1697 0
-1681 -1698 0
-1681 -1699 0
-1681 -1700 0
-1681 -1701 0
-1681 -1702 0
-1681 -1703 0
-1681 -1704 0
-1681 -1705 0
-1681 -1706 0
-1681 -1707 0
-1681 -1708 0
-1681 -1709 0
-1681 -1710 0
-1681 -1711 0
-1681 -1712 0
-1681 -1713 0
-1681 -1714 0
-1681 -1715 0
-1681 -1716 0
-1681 -1717 0
-1681 -1718 0
-1681 -1719 0
-1681 -1720 0
-1681 -1721 0
-1681 -1722 0
-1681 -1723 0
-1681 -1724 0
-1681 -1725 0
-1681 -1726 0
-1681 -1727 0
-1681 -1728 0
-1681 -1729 0
-1681 -1730 0
-1681 -1731 0
-1681 -1732 0
-1681 -1733 0
-1681 -1734 0
-1681 -1735 0
-1681 -1736 0
-1681 -1737 0
-1681 -1738 0
-1681 -1739 0
-1681 -1740 0
-1681 -1741 0
-1681 -1742 0
-1681 -1743 0
-1681 -1744 0
-1681 -1745 0
-1681 -1746 0
-1682 -1683 0
-1682 -1684 0
-1682 -1685 0
-1682 -1686 0
-1682 -1687 0
-1682 -1688 0
-1682 -1689 0
-1682 -1690 0
-1682 -1691 0
-1682 -1692 0
-1682 -1693 0
-1682 -1694 0
-1682 -1695 0
-1682 -1696 0
-1682 -1697 0
-1682 -1698 0
-1682 -1699 0
-1682 -1700 0
-1682 -1701 0
-1682 -1702 0
-1682 -1703 0
-1682 -1704 0
-1682 -1705 0
-1682 -1706 0
-1682 -1707 0
-1682 -1708 0
-1682 -1709 0
-1682 -1710 0
-1682 -1711 0
-1682 -1712 0
-1682 -1713 0
-1682 -1714 0
-1682 -1715 0
-1682 -1716 0
-1682 -1717 0
-1682 -1718 0
-1682 -1719 0
-1682 -1720 0
-1682 -1721 0
-1682 -1722 0
-1682 -1723 0
-1682 -1724 0
-1682 -1725 0
-1682 -1726 0
-1682 -1727 0
-1682 -1728 0
-1682 -1729 0
-1682 -1730 0
-1682 -1731 0
-1682 -1732 0
-1682 -1733 0
-1682 -1734 0
-1682 -1735 0
-1682 -1736 0
-1682 -1737 0
-1682 -1738 0
-1682 -1739 0
-1682 -1740 0
-1682 -1741 0
-1682 -1742 0
-1682 -1743 0
-1682 -1744 0
-1682 -1745 0
-1682 -1746 0
-1683 -1684 0
-1683 -1685 0
-1683 -1686 0
-1683 -1687 0
-1683 -1688 0
-1683 -1689 0
-1683 -1690 0
-1683 -1691 0
-1683 -1692 0
-1683 -1693 0
-1683 -1694 0
-1683 -1695 0
-1683 -1696 0
-1683 -1697 0
-1683 -1698 0
-1683 -1699 0
-1683 -1700 0
-1683 -1701 0
-1683 -1702 0
-1683 -1703 0
-1683 -1704 0
-1683 -1705 0
-1683 -1706 0
-1683 -1707 0
-1683 -1708 0
-1683 -1709 0
-1683 -1710 0
-1683 -1711 0
-1683 -1712 0
-1683 -1713 0
-1683 -1714 0
-1683 -1715 0
-1683 -1716 0
-1683 -1717 0
-1683 -1718 0
-1683 -1719 0
-1683 -1720 0
-1683 -1721 0
-1683 -1722 0
-1683 -1723 0
-1683 -1724 0
-1683 -1725 0
-1683 -1726 0
-1683 -1727 0
-1683 -1728 0
-1683 -1729 0
-1683 -1730 0
-1683 -1731 0
-1683 -1732 0
-1683 -1733 0
-1683 -1734 0
-1683 -1735 0
-1683 -1736 0
-1683 -1737 0
-1683 -1738 0
-1683 -1739 0
-1683 -1740 0
-1683 -1741 0
-1683 -1742 0
-1683 -1743 0
-1683 -1744 0
-1683 -1745 0
-1683 -1746 0
-1684 -1685 0
-1684 -1686 0
-1684 -1687 0
-1684 -1688 0
-1684 -1689 0
-1684 -1690 0
-1684 -1691 0
-1684 -1692 0
-1684 -1693 0
-1684 -1694 0
-1684 -1695 0
-1684 -1696 0
-1684 -1697 0
-1684 -1698 0
-1684 -1699 0
-1684 -1700 0
-1684 -1701 0
-1684 -1702 0
-1684 -1703 0
-1684 -1704 0
-1684 -1705 0
-1684 -1706 0
-1684 -1707 0
-1684 -1708 0
-1684 -1709 0
-1684 -1710 0
-1684 -1711 0
-1684 -1712 0
-1684 -1713 0
-1684 -1714 0
-1684 -1715 0
-1684 -1716 0
-1684 -1717 0
-1684 -1718 0
-1684 -1719 0
-1684 -1720 0
-1684 -1721 0
-1684 -1722 0
-1684 -1723 0
-1684 -1724 0
-1684 -1725 0
-1684 -1726 0
-1684 -1727 0
-1684 -1728 0
-1684 -1729 0
-1684 -1730 0
-1684 -1731 0
-1684 -1732 0
-1684 -1733 0
-1684 -1734 0
-1684 -1735 0
-1684 -1736 0
-1684 -1737 0
-1684 -1738 0
-1684 -1739 0
-1684 -1740 0
-1684 -1741 0
-1684 -1742 0
-1684 -1743 0
-1684 -1744 0
-1684 -1745 0
-1684 -1746 0
-1685 -1686 0
-1685 -1687 0
-1685 -1688 0
-1685 -1689 0
-1685 -1690 0
-1685 -1691 0
-1685 -1692 0
-1685 -1693 0
-1685 -1694 0
-1685 -1695 0
-1685 -1696 0
-1685 -1697 0
-1685 -1698 0
-1685 -1699 0
-1685 -1700 0
-1685 -1701 0
-1685 -1702 0
-1685 -1703 0
-1685 -1704 0
-1685 -1705 0
-1685 -1706 0
-1685 -1707 0
-1685 -1708 0
-1685 -1709 0
-1685 -1710 0
-1685 -1711 0
-1685 -1712 0
-1685 -1713 0
-1685 -1714 0
-1685 -1715 0
-1685 -1716 0
-1685 -1717 0
-1685 -1718 0
-1685 -1719 0
-1685 -1720 0
-1685 -1721 0
-1685 -1722 0
-1685 -1723 0
-1685 -1724 0
-1685 -1725 0
-1685 -1726 0
-1685 -1727 0
-1685 -1728 0
-1685 -1729 0
-1685 -1730 0
-1685 -1731 0
-1685 -1732 0
-1685 -1733 0
-1685 -1734 0
-1685 -1735 0
-1685 -1736 0
-1685 -1737 0
-1685 -1738 0
-1685 -1739 0
-1685 -1740 0
-1685 -1741 0
-1685 -1742 0
-1685 -1743 0
-1685 -1744 0
-1685 -1745 0
-1685 -1746 0
-1686 -1687 0
-1686 -1688 0
-1686 -1689 0
-1686 -1690 0
-1686 -1691 0
-1686 -1692 0
-1686 -1693 0
-1686 -1694 0
-1686 -1695 0
-1686 -1696 0
-1686 -1697 0
-1686 -1698 0
-1686 -1699 0
-1686 -1700 0
-1686 -1701 0
-1686 -1702 0
-1686 -1703 0
-1686 -1704 0
-1686 -1705 0
-1686 -1706 0
-1686 -1707 0
-1686 -1708 0
-1686 -1709 0
-1686 -1710 0
-1686 -1711 0
-1686 -1712 0
-1686 -1713 0
-1686 -1714 0
-1686 -1715 0
-1686 -1716 0
-1686 -1717 0
-1686 -1718 0
-1686 -1719 0
-1686 -1720 0
-1686 -1721 0
-1686 -1722 0
-1686 -1723 0
-1686 -1724 0
-1686 -1725 0
-1686 -1726 0
-1686 -1727 0
-1686 -1728 0
-1686 -1729 0
-1686 -1730 0
-1686 -1731 0
-1686 -1732 0
-1686 -1733 0
-1686 -1734 0
-1686 -1735 0
-1686 -1736 0
-1686 -1737 0
-1686 -1738 0
-1686 -1739 0
-1686 -1740 0
-1686 -1741 0
-1686 -1742 0
-1686 -1743 0
-1686 -1744 0
-1686 -1745 0
-1686 -1746 0
-1687 -1688 0
-1687 -1689 0
-1687 -1690 0
-1687 -1691 0
-1687 -1692 0
-1687 -1693 0
-1687 -1694 0
-1687 -1695 0
-1687 -1696 0
-1687 -1697 0
-1687 -1698 0
-1687 -1699 0
-1687 -1700 0
-1687 -1701 0
-1687 -1702 0
-1687 -1703 0
-1687 -1704 0
-1687 -1705 0
-1687 -1706 0
-1687 -1707 0
-1687 -1708 0
-1687 -1709 0
-1687 -1710 0
-1687 -1711 0
-1687 -1712 0
-1687 -1713 0
-1687 -1714 0
-1687 -1715 0
-1687 -1716 0
-1687 -1717 0
-1687 -1718 0
-1687 -1719 0
-1687 -1720 0
-1687 -1721 0
-1687 -1722 0
-1687 -1723 0
-1687 -1724 0
-1687 -1725 0
-1687 -1726 0
-1687 -1727 0
-1687 -1728 0
-1687 -1729 0
-1687 -1730 0
-1687 -1731 0
-1687 -1732 0
-1687 -1733 0
-1687 -1734 0
-1687 -1735 0
-1687 -1736 0
-1687 -1737 0
-1687 -1738 0
-1687 -1739 0
-1687 -1740 0
-1687 -1741 0
-1687 -1742 0
-1687 -1743 0
-1687 -1744 0
-1687 -1745 0
-1687 -1746 0
-1688 -1689 0
-1688 -1690 0
-1688 -1691 0
-1688 -1692 0
-1688 -1693 0
-1688 -1694 0
-1688 -1695 0
-1688 -1696 0
-1688 -1697 0
-1688 -1698 0
-1688 -1699 0
-1688 -1700 0
-1688 -1701 0
-1688 -1702 0
-1688 -1703 0
-1688 -1704 0
-1688 -1705 0
-1688 -1706 0
-1688 -1707 0
-1688 -1708 0
-1688 -1709 0
-1688 -1710 0
-1688 -1711 0
-1688 -1712 0
-1688 -1713 0
-1688 -1714 0
-1688 -1715 0
-1688 -1716 0
-1688 -1717 0
-1688 -1718 0
-1688 -1719 0
-1688 -1720 0
-1688 -1721 0
-1688 -1722 0
-1688 -1723 0
-1688 -1724 0
-1688 -1725 0
-1688 -1726 0
-1688 -1727 0
-1688 -1728 0
-1688 -1729 0
-1688 -1730 0
-1688 -1731 0
-1688 -1732 0
-1688 -1733 0
-1688 -1734 0
-1688 -1735 0
-1688 -1736 0
-1688 -1737 0
-1688 -1738 0
-1688 -1739 0
-1688 -1740 0
-1688 -1741 0
-1688 -1742 0
-1688 -1743 0
-1688 -1744 0
-1688 -1745 0
-1688 -1746 0
-1689 -1690 0
-1689 -1691 0
-1689 -1692 0
-1689 -1693 0
-1689 -1694 0
-1689 -1695 0
-1689 -1696 0
-1689 -1697 0
-1689 -1698 0
-1689 -1699 0
-1689 -1700 0
-1689 -1701 0
-1689 -1702 0
-1689 -1703 0
-1689 -1704 0
-1689 -1705 0
-1689 -1706 0
-1689 -1707 0
-1689 -1708 0
-1689 -1709 0
-1689 -1710 0
-1689 -1711 0
-1689 -1712 0
-1689 -1713 0
-1689 -1714 0
-1689 -1715 0
-1689 -1716 0
-1689 -1717 0
-1689 -1718 0
-1689 -1719 0
-1689 -1720 0
-1689 -1721 0
-1689 -1722 0
-1689 -1723 0
-1689 -1724 0
-1689 -1725 0
-1689 -1726 0
-1689 -1727 0
-1689 -1728 0
-1689 -1729 0
-1689 -1730 0
-1689 -1731 0
-1689 -1732 0
-1689 -1733 0
-1689 -1734 0
-1689 -1735 0
-1689 -1736 0
-1689 -1737 0
-1689 -1738 0
-1689 -1739 0
-1689 -1740 0
-1689 -1741 0
-1689 -1742 0
-1689 -1743 0
-1689 -1744 0
-1689 -1745 0
-1689 -1746 0
-1690 -1691 0
-1690 -1692 0
-1690 -1693 0
-1690 -1694 0
-1690 -1695 0
-1690 -1696 0
-1690 -1697 0
-1690 -1698 0
-1690 -1699 0
-1690 -1700 0
-1690 -1701 0
-1690 -1702 0
-1690 -1703 0
-1690 -1704 0
-1690 -1705 0
-1690 -1706 0
-1690 -1707 0
-1690 -1708 0
-1690 -1709 0
-1690 -1710 0
-1690 -1711 0
-1690 -1712 0
-1690 -1713 0
-1690 -1714 0
-1690 -1715 0
-1690 -1716 0
-1690 -1717 0
-1690 -1718 0
-1690 -1719 0
-1690 -1720 0
-1690 -1721 0
-1690 -1722 0
-1690 -1723 0
-1690 -1724 0
-1690 -1725 0
-1690 -1726 0
-1690 -1727 0
-1690 -1728 0
-1690 -1729 0
-1690 -1730 0
-1690 -1731 0
-1690 -1732 0
-1690 -1733 0
-1690 -1734 0
-1690 -1735 0
-1690 -1736 0
-1690 -1737 0
-1690 -1738 0
-1690 -1739 0
-1690 -1740 0
-1690 -1741 0
-1690 -1742 0
-1690 -1743 0
-1690 -1744 0
-1690 -1745 0
-1690 -1746 0
-1691 -1692 0
-1691 -1693 0
-1691 -1694 0
-1691 -1695 0
-1691 -1696 0
-1691 -1697 0
-1691 -1698 0
-1691 -1699 0
-1691 -1700 0
-1691 -1701 0
-1691 -1702 0
-1691 -1703 0
-1691 -1704 0
-1691 -1705 0
-1691 -1706 0
-1691 -1707 0
-1691 -1708 0
-1691 -1709 0
-1691 -1710 0
-1691 -1711 0
-1691 -1712 0
-1691 -1713 0
-1691 -1714 0
-1691 -1715 0
-1691 -1716 0
-1691 -1717 0
-1691 -1718 0
-1691 -1719 0
-1691 -1720 0
-1691 -1721 0
-1691 -1722 0
-1691 -1723 0
-1691 -1724 0
-1691 -1725 0
-1691 -1726 0
-1691 -1727 0
-1691 -1728 0
-1691 -1729 0
-1691 -1730 0
-1691 -1731 0
-1691 -1732 0
-1691 -1733 0
-1691 -1734 0
-1691 -1735 0
-1691 -1736 0
-1691 -1737 0
-1691 -1738 0
-1691 -1739 0
-1691 -1740 0
-1691 -1741 0
-1691 -1742 0
-1691 -1743 0
-1691 -1744 0
-1691 -1745 0
-1691 -1746 0
-1692 -1693 0
-1692 -1694 0
-1692 -1695 0
-1692 -1696 0
-1692 -1697 0
-1692 -1698 0
-1692 -1699 0
-1692 -1700 0
-1692 -1701 0
-1692 -1702 0
-1692 -1703 0
-1692 -1704 0
-1692 -1705 0
-1692 -1706 0
-1692 -1707 0
-1692 -1708 0
-1692 -1709 0
-1692 -1710 0
-1692 -1711 0
-1692 -1712 0
-1692 -1713 0
-1692 -1714 0
-1692 -1715 0
-1692 -1716 0
-1692 -1717 0
-1692 -1718 0
-1692 -1719 0
-1692 -1720 0
-1692 -1721 0
-1692 -1722 0
-1692 -1723 0
-1692 -1724 0
-1692 -1725 0
-1692 -1726 0
-1692 -1727 0
-1692 -1728 0
-1692 -1729 0
-1692 -1730 0
-1692 -1731 0
-1692 -1732 0
-1692 -1733 0
-1692 -1734 0
-1692 -1735 0
-1692 -1736 0
-1692 -1737 0
-1692 -1738 0
-1692 -1739 0
-1692 -1740 0
-1692 -1741 0
-1692 -1742 0
-1692 -1743 0
-1692 -1744 0
-1692 -1745 0
-1692 -1746 0
-1693 -1694 0
-1693 -1695 0
-1693 -1696 0
-1693 -1697 0
-1693 -1698 0
-1693 -1699 0
-1693 -1700 0
-1693 -1701 0
-1693 -1702 0
-1693 -1703 0
-1693 -1704 0
-1693 -1705 0
-1693 -1706 0
-1693 -1707 0
-1693 -1708 0
-1693 -1709 0
-1693 -1710 0
-1693 -1711 0
-1693 -1712 0
-1693 -1713 0
-1693 -1714 0
-1693 -1715 0
-1693 -1716 0
-1693 -1717 0
-1693 -1718 0
-1693 -1719 0
-1693 -1720 0
-1693 -1721 0
-1693 -1722 0
-1693 -1723 0
-1693 -1724 0
-1693 -1725 0
-1693 -1726 0
-1693 -1727 0
-1693 -1728 0
-1693 -1729 0
-1693 -1730 0
-1693 -1731 0
-1693 -1732 0
-1693 -1733 0
-1693 -1734 0
-1693 -1735 0
-1693 -1736 0
-1693 -1737 0
-1693 -1738 0
-1693 -1739 0
-1693 -1740 0
-1693 -1741 0
-1693 -1742 0
-1693 -1743 0
-1693 -1744 0
-1693 -1745 0
-1693 -1746 0
-1694 -1695 0
-1694 -1696 0
-1694 -1697 0
-1694 -1698 0
-1694 -1699 0
-1694 -1700 0
-1694 -1701 0
-1694 -1702 0
-1694 -1703 0
-1694 -1704 0
-1694 -1705 0
-1694 -1706 0
-1694 -1707 0
-1694 -1708 0
-1694 -1709 0
-1694 -1710 0
-1694 -1711 0
-1694 -1712 0
-1694 -1713 0
-1694 -1714 0
-1694 -1715 0
-1694 -1716 0
-1694 -1717 0
-1694 -1718 0
-1694 -1719 0
-1694 -1720 0
-1694 -1721 0
-1694 -1722 0
-1694 -1723 0
-1694 -1724 0
-1694 -1725 0
-1694 -1726 0
-1694 -1727 0
-1694 -1728 0
-1694 -1729 0
-1694 -1730 0
-1694 -1731 0
-1694 -1732 0
-1694 -1733 0
-1694 -1734 0
-1694 -1735 0
-1694 -1736 0
-1694 -1737 0
-1694 -1738 0
-1694 -1739 0
-1694 -1740 0
-1694 -1741 0
-1694 -1742 0
-1694 -1743 0
-1694 -1744 0
-1694 -1745 0
-1694 -1746 0
-1695 -1696 0
-1695 -1697 0
-1695 -1698 0
-1695 -1699 0
-1695 -1700 0
-1695 -1701 0
-1695 -1702 0
-1695 -1703 0
-1695 -1704 0
-1695 -1705 0
-1695 -1706 0
-1695 -1707 0
-1695 -1708 0
-1695 -1709 0
-1695 -1710 0
-1695 -1711 0
-1695 -1712 0
-1695 -1713 0
-1695 -1714 0
-1695 -1715 0
-1695 -1716 0
-1695 -1717 0
-1695 -1718 0
-1695 -1719 0
-1695 -1720 0
-1695 -1721 0
-1695 -1722 0
-1695 -1723 0
-1695 -1724 0
-1695 -1725 0
-1695 -1726 0
-1695 -1727 0
-1695 -1728 0
-1695 -1729 0
-1695 -1730 0
-1695 -1731 0
-1695 -1732 0
-1695 -1733 0
-1695 -1734 0
-1695 -1735 0
-1695 -1736 0
-1695 -1737 0
-1695 -1738 0
-1695 -1739 0
-1695 -1740 0
-1695 -1741 0
-1695 -1742 0
-1695 -1743 0
-1695 -1744 0
-1695 -1745 0
-1695 -1746 0
-1696 -1697 0
-1696 -1698 0
-1696 -1699 0
-1696 -1700 0
-1696 -1701 0
-1696 -1702 0
-1696 -1703 0
-1696 -1704 0
-1696 -1705 0
-1696 -1706 0
-1696 -1707 0
-1696 -1708 0
-1696 -1709 0
-1696 -1710 0
-1696 -1711 0
-1696 -1712 0
-1696 -1713 0
-1696 -1714 0
-1696 -1715 0
-1696 -1716 0
-1696 -1717 0
-1696 -1718 0
-1696 -1719 0
-1696 -1720 0
-1696 -1721 0
-1696 -1722 0
-1696 -1723 0
-1696 -1724 0
-1696 -1725 0
-1696 -1726 0
-1696 -1727 0
-1696 -1728 0
-1696 -1729 0
-1696 -1730 0
-1696 -1731 0
-1696 -1732 0
-1696 -1733 0
-1696 -1734 0
-1696 -1735 0
-1696 -1736 0
-1696 -1737 0
-1696 -1738 0
-1696 -1739 0
-1696 -1740 0
-1696 -1741 0
-1696 -1742 0
-1696 -1743 0
-1696 -1744 0
-1696 -1745 0
-1696 -1746 0
-1697 -1698 0
-1697 -1699 0
-1697 -1700 0
-1697 -1701 0
-1697 -1702 0
-1697 -1703 0
-1697 -1704 0
-1697 -1705 0
-1697 -1706 0
-1697 -1707 0
-1697 -1708 0
-1697 -1709 0
-1697 -1710 0
-1697 -1711 0
-1697 -1712 0
-1697 -1713 0
-1697 -1714 0
-1697 -1715 0
-1697 -1716 0
-1697 -1717 0
-1697 -1718 0
-1697 -1719 0
-1697 -1720 0
-1697 -1721 0
-1697 -1722 0
-1697 -1723 0
-1697 -1724 0
-1697 -1725 0
-1697 -1726 0
-1697 -1727 0
-1697 -1728 0
-1697 -1729 0
-1697 -1730 0
-1697 -1731 0
-1697 -1732 0
-1697 -1733 0
-1697 -1734 0
-1697 -1735 0
-1697 -1736 0
-1697 -1737 0
-1697 -1738 0
-1697 -1739 0
-1697 -1740 0
-1697 -1741 0
-1697 -1742 0
-1697 -1743 0
-1697 -1744 0
-1697 -1745 0
-1697 -1746 0
-1698 -1699 0
-1698 -1700 0
-1698 -1701 0
-1698 -1702 0
-1698 -1703 0
-1698 -1704 0
-1698 -1705 0
-1698 -1706 0
-1698 -1707 0
-1698 -1708 0
-1698 -1709 0
-1698 -1710 0
-1698 -1711 0
-1698 -1712 0
-1698 -1713 0
-1698 -1714 0
-1698 -1715 0
-1698 -1716 0
-1698 -1717 0
-1698 -1718 0
-1698 -1719 0
-1698 -1720 0
-1698 -1721 0
-1698 -1722 0
-1698 -1723 0
-1698 -1724 0
-1698 -1725 0
-1698 -1726 0
-1698 -1727 0
-1698 -1728 0
-1698 -1729 0
-1698 -1730 0
-1698 -1731 0
-1698 -1732 0
-1698 -1733 0
-1698 -1734 0
-1698 -1735 0
-1698 -1736 0
-1698 -1737 0
-1698 -1738 0
-1698 -1739 0
-1698 -1740 0
-1698 -1741 0
-1698 -1742 0
-1698 -1743 0
-1698 -1744 0
-1698 -1745 0
-1698 -1746 0
-1699 -1700 0
-1699 -1701 0
-1699 -1702 0
-1699 -1703 0
-1699 -1704 0
-1699 -1705 0
-1699 -1706 0
-1699 -1707 0
-1699 -1708 0
-1699 -1709 0
-1699 -1710 0
-1699 -1711 0
-1699 -1712 0
-1699 -1713 0
-1699 -1714 0
-1699 -1715 0
-1699 -1716 0
-1699 -1717 0
-1699 -1718 0
-1699 -1719 0
-1699 -1720 0
-1699 -1721 0
-1699 -1722 0
-1699 -1723 0
-1699 -1724 0
-1699 -1725 0
-1699 -1726 0
-1699 -1727 0
-1699 -1728 0
-1699 -1729 0
-1699 -1730 0
-1699 -1731 0
-1699 -1732 0
-1699 -1733 0
-1699 -1734 0
-1699 -1735 0
-1699 -1736 0
-1699 -1737 0
-1699 -1738 0
-1699 -1739 0
-1699 -1740 0
-1699 -1741 0
-1699 -1742 0
-1699 -1743 0
-1699 -1744 0
-1699 -1745 0
-1699 -1746 0
-1700 -1701 0
-1700 -1702 0
-1700 -1703 0
-1700 -1704 0
-1700 -1705 0
-1700 -1706 0
-1700 -1707 0
-1700 -1708 0
-1700 -1709 0
-1700 -1710 0
-1700 -1711 0
-1700 -1712 0
-1700 -1713 0
-1700 -1714 0
-1700 -1715 0
-1700 -1716 0
-1700 -1717 0
-1700 -1718 0
-1700 -1719 0
-1700 -1720 0
-1700 -1721 0
-1700 -1722 0
-1700 -1723 0
-1700 -1724 0
-1700 -1725 0
-1700 -1726 0
-1700 -1727 0
-1700 -1728 0
-1700 -1729 0
-1700 -1730 0
-1700 -1731 0
-1700 -1732 0
-1700 -1733 0
-1700 -1734 0
-1700 -1735 0
-1700 -1736 0
-1700 -1737 0
-1700 -1738 0
-1700 -1739 0
-1700 -1740 0
-1700 -1741 0
-1700 -1742 0
-1700 -1743 0
-1700 -1744 0
-1700 -1745 0
-1700 -1746 0
-1701 -1702 0
-1701 -1703 0
-1701 -1704 0
-1701 -1705 0
-1701 -1706 0
-1701 -1707 0
-1701 -1708 0
-1701 -1709 0
-1701 -1710 0
-1701 -1711 0
-1701 -1712 0
-1701 -1713 0
-1701 -1714 0
-1701 -1715 0
-1701 -1716 0
-1701 -1717 0
-1701 -1718 0
-1701 -1719 0
-1701 -1720 0
-1701 -1721 0
-1701 -1722 0
-1701 -1723 0
-1701 -1724 0
-1701 -1725 0
-1701 -1726 0
-1701 -1727 0
-1701 -1728 0
-1701 -1729 0
-1701 -1730 0
-1701 -1731 0
-1701 -1732 0
-1701 -1733 0
-1701 -1734 0
-1701 -1735 0
-1701 -1736 0
-1701 -1737 0
-1701 -1738 0
-1701 -1739 0
-1701 -1740 0
-1701 -1741 0
-1701 -1742 0
-1701 -1743 0
-1701 -1744 0
-1701 -1745 0
-1701 -1746 0
-1702 -1703 0
-1702 -1704 0
-1702 -1705 0
-1702 -1706 0
-1702 -1707 0
-1702 -1708 0
-1702 -1709 0
-1702 -1710 0
-1702 -1711 0
-1702 -1712 0
-1702 -1713 0
-1702 -1714 0
-1702 -1715 0
-1702 -1716 0
-1702 -1717 0
-1702 -1718 0
-1702 -1719 0
-1702 -1720 0
-1702 -1721 0
-1702 -1722 0
-1702 -1723 0
-1702 -1724 0
-1702 -1725 0
-1702 -1726 0
-1702 -1727 0
-1702 -1728 0
-1702 -1729 0
-1702 -1730 0
-1702 -1731 0
-1702 -1732 0
-1702 -1733 0
-1702 -1734 0
-1702 -1735 0
-1702 -1736 0
-1702 -1737 0
-1702 -1738 0
-1702 -1739 0
-1702 -1740 0
-1702 -1741 0
-1702 -1742 0
-1702 -1743 0
-1702 -1744 0
-1702 -1745 0
-1702 -1746 0
-1703 -1704 0
-1703 -1705 0
-1703 -1706 0
-1703 -1707 0
-1703 -1708 0
-1703 -1709 0
-1703 -1710 0
-1703 -1711 0
-1703 -1712 0
-1703 -1713 0
-1703 -1714 0
-1703 -1715 0
-1703 -1716 0
-1703 -1717 0
-1703 -1718 0
-1703 -1719 0
-1703 -1720 0
-1703 -1721 0
-1703 -1722 0
-1703 -1723 0
-1703 -1724 0
-1703 -1725 0
-1703 -1726 0
-1703 -1727 0
-1703 -1728 0
-1703 -1729 0
-1703 -1730 0
-1703 -1731 0
-1703 -1732 0
-1703 -1733 0
-1703 -1734 0
-1703 -1735 0
-1703 -1736 0
-1703 -1737 0
-1703 -1738 0
-1703 -1739 0
-1703 -1740 0
-1703 -1741 0
-1703 -1742 0
-1703 -1743 0
-1703 -1744 0
-1703 -1745 0
-1703 -1746 0
-1704 -1705 0
-1704 -1706 0
-1704 -1707 0
-1704 -1708 0
-1704 -1709 0
-1704 -1710 0
-1704 -1711 0
-1704 -1712 0
-1704 -1713 0
-1704 -1714 0
-1704 -1715 0
-1704 -1716 0
-1704 -1717 0
-1704 -1718 0
-1704 -1719 0
-1704 -1720 0
-1704 -1721 0
-1704 -1722 0
-1704 -1723 0
-1704 -1724 0
-1704 -1725 0
-1704 -1726 0
-1704 -1727 0
-1704 -1728 0
-1704 -1729 0
-1704 -1730 0
-1704 -1731 0
-1704 -1732 0
-1704 -1733 0
-1704 -1734 0
-1704 -1735 0
-1704 -1736 0
-1704 -1737 0
-1704 -1738 0
-1704 -1739 0
-1704 -1740 0
-1704 -1741 0
-1704 -1742 0
-1704 -1743 0
-1704 -1744 0
-1704 -1745 0
-1704 -1746 0
-1705 -1706 0
-1705 -1707 0
-1705 -1708 0
-1705 -1709 0
-1705 -1710 0
-1705 -1711 0
-1705 -1712 0
-1705 -1713 0
-1705 -1714 0
-1705 -1715 0
-1705 -1716 0
-1705 -1717 0
-1705 -1718 0
-1705 -1719 0
-1705 -1720 0
-1705 -1721 0
-1705 -1722 0
-1705 -1723 0
-1705 -1724 0
-1705 -1725 0
-1705 -1726 0
-1705 -1727 0
-1705 -1728 0
-1705 -1729 0
-1705 -1730 0
-1705 -1731 0
-1705 -1732 0
-1705 -1733 0
-1705 -1734 0
-1705 -1735 0
-1705 -1736 0
-1705 -1737 0
-1705 -1738 0
-1705 -1739 0
-1705 -1740 0
-1705 -1741 0
-1705 -1742 0
-1705 -1743 0
-1705 -1744 0
-1705 -1745 0
-1705 -1746 0
-1706 -1707 0
-1706 -1708 0
-1706 -1709 0
-1706 -1710 0
-1706 -1711 0
-1706 -1712 0
-1706 -1713 0
-1706 -1714 0
-1706 -1715 0
-1706 -1716 0
-1706 -1717 0
-1706 -1718 0
-1706 -1719 0
-1706 -1720 0
-1706 -1721 0
-1706 -1722 0
-1706 -1723 0
-1706 -1724 0
-1706 -1725 0
-1706 -1726 0
-1706 -1727 0
-1706 -1728 0
-1706 -1729 0
-1706 -1730 0
-1706 -1731 0
-1706 -1732 0
-1706 -1733 0
-1706 -1734 0
-1706 -1735 0
-1706 -1736 0
-1706 -1737 0
-1706 -1738 0
-1706 -1739 0
-1706 -1740 0
-1706 -1741 0
-1706 -1742 0
-1706 -1743 0
-1706 -1744 0
-1706 -1745 0
-1706 -1746 0
-1707 -1708 0
-1707 -1709 0
-1707 -1710 0
-1707 -1711 0
-1707 -1712 0
-1707 -1713 0
-1707 -1714 0
-1707 -1715 0
-1707 -1716 0
-1707 -1717 0
-1707 -1718 0
-1707 -1719 0
-1707 -1720 0
-1707 -1721 0
-1707 -1722 0
-1707 -1723 0
-1707 -1724 0
-1707 -1725 0
-1707 -1726 0
-1707 -1727 0
-1707 -1728 0
-1707 -1729 0
-1707 -1730 0
-1707 -1731 0
-1707 -1732 0
-1707 -1733 0
-1707 -1734 0
-1707 -1735 0
-1707 -1736 0
-1707 -1737 0
-1707 -1738 0
-1707 -1739 0
-1707 -1740 0
-1707 -1741 0
-1707 -1742 0
-1707 -1743 0
-1707 -1744 0
-1707 -1745 0
-1707 -1746 0
-1708 -1709 0
-1708 -1710 0
-1708 -1711 0
-1708 -1712 0
-1708 -1713 0
-1708 -1714 0
-1708 -1715 0
-1708 -1716 0
-1708 -1717 0
-1708 -1718 0
-1708 -1719 0
-1708 -1720 0
-1708 -1721 0
-1708 -1722 0
-1708 -1723 0
-1708 -1724 0
-1708 -1725 0
-1708 -1726 0
-1708 -1727 0
-1708 -1728 0
-1708 -1729 0
-1708 -1730 0
-1708 -1731 0
-1708 -1732 0
-1708 -1733 0
-1708 -1734 0
-1708 -1735 0
-1708 -1736 0
-1708 -1737 0
-1708 -1738 0
-1708 -1739 0
-1708 -1740 0
-1708 -1741 0
-1708 -1742 0
-1708 -1743 0
-1708 -1744 0
-1708 -1745 0
-1708 -1746 0
-1709 -1710 0
-1709 -1711 0
-1709 -1712 0
-1709 -1713 0
-1709 -1714 0
-1709 -1715 0
-1709 -1716 0
-1709 -1717 0
-1709 -1718 0
-1709 -1719 0
-1709 -1720 0
-1709 -1721 0
-1709 -1722 0
-1709 -1723 0
-1709 -1724 0
-1709 -1725 0
-1709 -1726 0
-1709 -1727 0
-1709 -1728 0
-1709 -1729 0
-1709 -1730 0
-1709 -1731 0
-1709 -1732 0
-1709 -1733 0
-1709 -1734 0
-1709 -1735 0
-1709 -1736 0
-1709 -1737 0
-1709 -1738 0
-1709 -1739 0
-1709 -1740 0
-1709 -1741 0
-1709 -1742 0
-1709 -1743 0
-1709 -1744 0
-1709 -1745 0
-1709 -1746 0
-1710 -1711 0
-1710 -1712 0
-1710 -1713 0
-1710 -1714 0
-1710 -1715 0
-1710 -1716 0
-1710 -1717 0
-1710 -1718 0
-1710 -1719 0
-1710 -1720 0
-1710 -1721 0
-1710 -1722 0
-1710 -1723 0
-1710 -1724 0
-1710 -1725 0
-1710 -1726 0
-1710 -1727 0
-1710 -1728 0
-1710 -1729 0
-1710 -1730 0
-1710 -1731 0
-1710 -1732 0
-1710 -1733 0
-1710 -1734 0
-1710 -1735 0
-1710 -1736 0
-1710 -1737 0
-1710 -1738 0
-1710 -1739 0
-1710 -1740 0
-1710 -1741 0
-1710 -1742 0
-1710 -1743 0
-1710 -1744 0
-1710 -1745 0
-1710 -1746 0
-1711 -1712 0
-1711 -1713 0
-1711 -1714 0
-1711 -1715 0
-1711 -1716 0
-1711 -1717 0
-1711 -1718 0
-1711 -1719 0
-1711 -1720 0
-1711 -1721 0
-1711 -1722 0
-1711 -1723 0
-1711 -1724 0
-1711 -1725 0
-1711 -1726 0
-1711 -1727 0
-1711 -1728 0
-1711 -1729 0
-1711 -1730 0
-1711 -1731 0
-1711 -1732 0
-1711 -1733 0
-1711 -1734 0
-1711 -1735 0
-1711 -1736 0
-1711 -1737 0
-1711 -1738 0
-1711 -1739 0
-1711 -1740 0
-1711 -1741 0
-1711 -1742 0
-1711 -1743 0
-1711 -1744 0
-1711 -1745 0
-1711 -1746 0
-1712 -1713 0
-1712 -1714 0
-1712 -1715 0
-1712 -1716 0
-1712 -1717 0
-1712 -1718 0
-1712 -1719 0
-1712 -1720 0
-1712 -1721 0
-1712 -1722 0
-1712 -1723 0
-1712 -1724 0
-1712 -1725 0
-1712 -1726 0
-1712 -1727 0
-1712 -1728 0
-1712 -1729 0
-1712 -1730 0
-1712 -1731 0
-1712 -1732 0
-1712 -1733 0
-1712 -1734 0
-1712 -1735 0
-1712 -1736 0
-1712 -1737 0
-1712 -1738 0
-1712 -1739 0
-1712 -1740 0
-1712 -1741 0
-1712 -1742 0
-1712 -1743 0
-1712 -1744 0
-1712 -1745 0
-1712 -1746 0
-1713 -1714 0
-1713 -1715 0
-1713 -1716 0
-1713 -1717 0
-1713 -1718 0
-1713 -1719 0
-1713 -1720 0
-1713 -1721 0
-1713 -1722 0
-1713 -1723 0
-1713 -1724 0
-1713 -1725 0
-1713 -1726 0
-1713 -1727 0
-1713 -1728 0
-1713 -1729 0
-1713 -1730 0
-1713 -1731 0
-1713 -1732 0
-1713 -1733 0
-1713 -1734 0
-1713 -1735 0
-1713 -1736 0
-1713 -1737 0
-1713 -1738 0
-1713 -1739 0
-1713 -1740 0
-1713 -1741 0
-1713 -1742 0
-1713 -1743 0
-1713 -1744 0
-1713 -1745 0
-1713 -1746 0
-1714 -1715 0
-1714 -1716 0
-1714 -1717 0
-1714 -1718 0
-1714 -1719 0
-1714 -1720 0
-1714 -1721 0
-1714 -1722 0
-1714 -1723 0
-1714 -1724 0
-1714 -1725 0
-1714 -1726 0
-1714 -1727 0
-1714 -1728 0
-1714 -1729 0
-1714 -1730 0
-1714 -1731 0
-1714 -1732 0
-1714 -1733 0
-1714 -1734 0
-1714 -1735 0
-1714 -1736 0
-1714 -1737 0
-1714 -1738 0
-1714 -1739 0
-1714 -1740 0
-1714 -1741 0
-1714 -1742 0
-1714 -1743 0
-1714 -1744 0
-1714 -1745 0
-1714 -1746 0
-1715 -1716 0
-1715 -1717 0
-1715 -1718 0
-1715 -1719 0
-1715 -1720 0
-1715 -1721 0
-1715 -1722 0
-1715 -1723 0
-1715 -1724 0
-1715 -1725 0
-1715 -1726 0
-1715 -1727 0
-1715 -1728 0
-1715 -1729 0
-1715 -1730 0
-1715 -1731 0
-1715 -1732 0
-1715 -1733 0
-1715 -1734 0
-1715 -1735 0
-1715 -1736 0
-1715 -1737 0
-1715 -1738 0
-1715 -1739 0
-1715 -1740 0
-1715 -1741 0
-1715 -1742 0
-1715 -1743 0
-1715 -1744 0
-1715 -1745 0
-1715 -1746 0
-1716 -1717 0
-1716 -1718 0
-1716 -1719 0
-1716 -1720 0
-1716 -1721 0
-1716 -1722 0
-1716 -1723 0
-1716 -1724 0
-1716 -1725 0
-1716 -1726 0
-1716 -1727 0
-1716 -1728 0
-1716 -1729 0
-1716 -1730 0
-1716 -1731 0
-1716 -1732 0
-1716 -1733 0
-1716 -1734 0
-1716 -1735 0
-1716 -1736 0
-1716 -1737 0
-1716 -1738 0
-1716 -1739 0
-1716 -1740 0
-1716 -1741 0
-1716 -1742 0
-1716 -1743 0
-1716 -1744 0
-1716 -1745 0
-1716 -1746 0
-1717 -1718 0
-1717 -1719 0
-1717 -1720 0
-1717 -1721 0
-1717 -1722 0
-1717 -1723 0
-1717 -1724 0
-1717 -1725 0
-1717 -1726 0
-1717 -1727 0
-1717 -1728 0
-1717 -1729 0
-1717 -1730 0
-1717 -1731 0
-1717 -1732 0
-1717 -1733 0
-1717 -1734 0
-1717 -1735 0
-1717 -1736 0
-1717 -1737 0
-1717 -1738 0
-1717 -1739 0
-1717 -1740 0
-1717 -1741 0
-1717 -1742 0
-1717 -1743 0
-1717 -1744 0
-1717 -1745 0
-1717 -1746 0
-1718 -1719 0
-1718 -1720 0
-1718 -1721 0
-1718 -1722 0
-1718 -1723 0
-1718 -1724 0
-1718 -1725 0
-1718 -1726 0
-1718 -1727 0
-1718 -1728 0
-1718 -1729 0
-1718 -1730 0
-1718 -1731 0
-1718 -1732 0
-1718 -1733 0
-1718 -1734 0
-1718 -1735 0
-1718 -1736 0
-1718 -1737 0
-1718 -1738 0
-1718 -1739 0
-1718 -1740 0
-1718 -1741 0
-1718 -1742 0
-1718 -1743 0
-1718 -1744 0
-1718 -1745 0
-1718 -1746 0
-1719 -1720 0
-1719 -1721 0
-1719 -1722 0
-1719 -1723 0
-1719 -1724 0
-1719 -1725 0
-1719 -1726 0
-1719 -1727 0
-1719 -1728 0
-1719 -1729 0
-1719 -1730 0
-1719 -1731 0
-1719 -1732 0
-1719 -1733 0
-1719 -1734 0
-1719 -1735 0
-1719 -1736 0
-1719 -1737 0
-1719 -1738 0
-1719 -1739 0
-1719 -1740 0
-1719 -1741 0
-1719 -1742 0
-1719 -1743 0
-1719 -1744 0
-1719 -1745 0
-1719 -1746 0
-1720 -1721 0
-1720 -1722 0
-1720 -1723 0
-1720 -1724 0
-1720 -1725 0
-1720 -1726 0
-1720 -1727 0
-1720 -1728 0
-1720 -1729 0
-1720 -1730 0
-1720 -1731 0
-1720 -1732 0
-1720 -1733 0
-1720 -1734 0
-1720 -1735 0
-1720 -1736 0
-1720 -1737 0
-1720 -1738 0
-1720 -1739 0
-1720 -1740 0
-1720 -1741 0
-1720 -1742 0
-1720 -1743 0
-1720 -1744 0
-1720 -1745 0
-1720 -1746 0
-1721 -1722 0
-1721 -1723 0
-1721 -1724 0
-1721 -1725 0
-1721 -1726 0
-1721 -1727 0
-1721 -1728 0
-1721 -1729 0
-1721 -1730 0
-1721 -1731 0
-1721 -1732 0
-1721 -1733 0
-1721 -1734 0
-1721 -1735 0
-1721 -1736 0
-1721 -1737 0
-1721 -1738 0
-1721 -1739 0
-1721 -1740 0
-1721 -1741 0
-1721 -1742 0
-1721 -1743 0
-1721 -1744 0
-1721 -1745 0
-1721 -1746 0
-1722 -1723 0
-1722 -1724 0
-1722 -1725 0
-1722 -1726 0
-1722 -1727 0
-1722 -1728 0
-1722 -1729 0
-1722 -1730 0
-1722 -1731 0
-1722 -1732 0
-1722 -1733 0
-1722 -1734 0
-1722 -1735 0
-1722 -1736 0
-1722 -1737 0
-1722 -1738 0
-1722 -1739 0
-1722 -1740 0
-1722 -1741 0
-1722 -1742 0
-1722 -1743 0
-1722 -1744 0
-1722 -1745 0
-1722 -1746 0
-1723 -1724 0
-1723 -1725 0
-1723 -1726 0
-1723 -1727 0
-1723 -1728 0
-1723 -1729 0
-1723 -1730 0
-1723 -1731 0
-1723 -1732 0
-1723 -1733 0
-1723 -1734 0
-1723 -1735 0
-1723 -1736 0
-1723 -1737 0
-1723 -1738 0
-1723 -1739 0
-1723 -1740 0
-1723 -1741 0
-1723 -1742 0
-1723 -1743 0
-1723 -1744 0
-1723 -1745 0
-1723 -1746 0
-1724 -1725 0
-1724 -1726 0
-1724 -1727 0
-1724 -1728 0
-1724 -1729 0
-1724 -1730 0
-1724 -1731 0
-1724 -1732 0
-1724 -1733 0
-1724 -1734 0
-1724 -1735 0
-1724 -1736 0
-1724 -1737 0
-1724 -1738 0
-1724 -1739 0
-1724 -1740 0
-1724 -1741 0
-1724 -1742 0
-1724 -1743 0
-1724 -1744 0
-1724 -1745 0
-1724 -1746 0
-1725 -1726 0
-1725 -1727 0
-1725 -1728 0
-1725 -1729 0
-1725 -1730 0
-1725 -1731 0
-1725 -1732 0
-1725 -1733 0
-1725 -1734 0
-1725 -1735 0
-1725 -1736 0
-1725 -1737 0
-1725 -1738 0
-1725 -1739 0
-1725 -1740 0
-1725 -1741 0
-1725 -1742 0
-1725 -1743 0
-1725 -1744 0
-1725 -1745 0
-1725 -1746 0
-1726 -1727 0
-1726 -1728 0
-1726 -1729 0
-1726 -1730 0
-1726 -1731 0
-1726 -1732 0
-1726 -1733 0
-1726 -1734 0
-1726 -1735 0
-1726 -1736 0
-1726 -1737 0
-1726 -1738 0
-1726 -1739 0
-1726 -1740 0
-1726 -1741 0
-1726 -1742 0
-1726 -1743 0
-1726 -1744 0
-1726 -1745 0
-1726 -1746 0
-1727 -1728 0
-1727 -1729 0
-1727 -1730 0
-1727 -1731 0
-1727 -1732 0
-1727 -1733 0
-1727 -1734 0
-1727 -1735 0
-1727 -1736 0
-1727 -1737 0
-1727 -1738 0
-1727 -1739 0
-1727 -1740 0
-1727 -1741 0
-1727 -1742 0
-1727 -1743 0
-1727 -1744 0
-1727 -1745 0
-1727 -1746 0
-1728 -1729 0
-1728 -1730 0
-1728 -1731 0
-1728 -1732 0
-1728 -1733 0
-1728 -1734 0
-1728 -1735 0
-1728 -1736 0
-1728 -1737 0
-1728 -1738 0
-1728 -1739 0
-1728 -1740 0
-1728 -1741 0
-1728 -1742 0
-1728 -1743 0
-1728 -1744 0
-1728 -1745 0
-1728 -1746 0
-1729 -1730 0
-1729 -1731 0
-1729 -1732 0
-1729 -1733 0
-1729 -1734 0
-1729 -1735 0
-1729 -1736 0
-1729 -1737 0
-1729 -1738 0
-1729 -1739 0
-1729 -1740 0
-1729 -1741 0
-1729 -1742 0
-1729 -1743 0
-1729 -1744 0
-1729 -1745 0
-1729 -1746 0
-1730 -1731 0
-1730 -1732 0
-1730 -1733 0
-1730 -1734 0
-1730 -1735 0
-1730 -1736 0
-1730 -1737 0
-1730 -1738 0
-1730 -1739 0
-1730 -1740 0
-1730 -1741 0
-1730 -1742 0
-1730 -1743 0
-1730 -1744 0
-1730 -1745 0
-1730 -1746 0
-1731 -1732 0
-1731 -1733 0
-1731 -1734 0
-1731 -1735 0
-1731 -1736 0
-1731 -1737 0
-1731 -1738 0
-1731 -1739 0
-1731 -1740 0
-1731 -1741 0
-1731 -1742 0
-1731 -1743 0
-1731 -1744 0
-1731 -1745 0
-1731 -1746 0
-1732 -1733 0
-1732 -1734 0
-1732 -1735 0
-1732 -1736 0
-1732 -1737 0
-1732 -1738 0
-1732 -1739 0
-1732 -1740 0
-1732 -1741 0
-1732 -1742 0
-1732 -1743 0
-1732 -1744 0
-1732 -1745 0
-1732 -1746 0
-1733 -1734 0
-1733 -1735 0
-1733 -1736 0
-1733 -1737 0
-1733 -1738 0
-1733 -1739 0
-1733 -1740 0
-1733 -1741 0
-1733 -1742 0
-1733 -1743 0
-1733 -1744 0
-1733 -1745 0
-1733 -1746 0
-1734 -1735 0
-1734 -1736 0
-1734 -1737 0
-1734 -1738 0
-1734 -1739 0
-1734 -1740 0
-1734 -1741 0
-1734 -1742 0
-1734 -1743 0
-1734 -1744 0
-1734 -1745 0
-1734 -1746 0
-1735 -1736 0
-1735 -1737 0
-1735 -1738 0
-1735 -1739 0
-1735 -1740 0
-1735 -1741 0
-1735 -1742 0
-1735 -1743 0
-1735 -1744 0
-1735 -1745 0
-1735 -1746 0
-1736 -1737 0
-1736 -1738 0
-1736 -1739 0
-1736 -1740 0
-1736 -1741 0
-1736 -1742 0
-1736 -1743 0
-1736 -1744 0
-1736 -1745 0
-1736 -1746 0
-1737 -1738 0
-1737 -1739 0
-1737 -1740 0
-1737 -1741 0
-1737 -1742 0
-1737 -1743 0
-1737 -1744 0
-1737 -1745 0
-1737 -1746 0
-1738 -1739 0
-1738 -1740 0
-1738 -1741 0
-1738 -1742 0
-1738 -1743 0
-1738 -1744 0
-1738 -1745 0
-1738 -1746 0
-1739 -1740 0
-1739 -1741 0
-1739 -1742 0
-1739 -1743 0
-1739 -1744 0
-1739 -1745 0
-1739 -1746 0
-1740 -1741 0
-1740 -1742 0
-1740 -1743 0
-1740 -1744 0
-1740 -1745 0
-1740 -1746 0
-1741 -1742 0
-1741 -1743 0
-1741 -1744 0
-1741 -1745 0
-1741 -1746 0
-1742 -1743 0
-1742 -1744 0
-1742 -1745 0
-1742 -1746 0
-1743 -1744 0
-1743 -1745 0
-1743 -1746 0
-1744 -1745 0
-1744 -1746 0
-1745 -1746 0
