p cnf 2051 42459
1 2 3 4 5 6 0
-1 -2 0
-1 -3 0
-1 -4 0
-1 -5 0
-1 -6 0
-2 -3 0
-2 -4 0
-2 -5 0
-2 -6 0
-3 -4 0
-3 -5 0
-3 -6 0
-4 -5 0
-4 -6 0
-5 -6 0
7 14 21 28 0
-7 -14 0
-7 -21 0
-7 -28 0
-14 -21 0
-14 -28 0
-21 -28 0
60 61 62 63 64 65 0
-60 -61 0
-60 -62 0
-60 -63 0
-60 -64 0
-60 -65 0
-61 -62 0
-61 -63 0
-61 -64 0
-61 -65 0
-62 -63 0
-62 -64 0
-62 -65 0
-63 -64 0
-63 -65 0
-64 -65 0
66 73 80 87 0
-66 -73 0
-66 -80 0
-66 -87 0
-73 -80 0
-73 -87 0
-80 -87 0
119 120 121 122 123 0
-119 -120 0
-119 -121 0
-119 -122 0
-119 -123 0
-120 -121 0
-120 -122 0
-120 -123 0
-121 -122 0
-121 -123 0
-122 -123 0
124 130 136 142 0
-124 -130 0
-124 -136 0
-124 -142 0
-130 -136 0
-130 -142 0
-136 -142 0
173 174 175 176 0
-173 -174 0
-173 -175 0
-173 -176 0
-174 -175 0
-174 -176 0
-175 -176 0
177 182 187 192 0
-177 -182 0
-177 -187 0
-177 -192 0
-182 -187 0
-182 -192 0
-187 -192 0
222 223 224 225 226 227 0
-222 -223 0
-222 -224 0
-222 -225 0
-222 -226 0
-222 -227 0
-223 -224 0
-223 -225 0
-223 -226 0
-223 -227 0
-224 -225 0
-224 -226 0
-224 -227 0
-225 -226 0
-225 -227 0
-226 -227 0
228 235 242 249 0
-228 -235 0
-228 -242 0
-228 -249 0
-235 -242 0
-235 -249 0
-242 -249 0
281 282 283 284 285 286 0
-281 -282 0
-281 -283 0
-281 -284 0
-281 -285 0
-281 -286 0
-282 -283 0
-282 -284 0
-282 -285 0
-282 -286 0
-283 -284 0
-283 -285 0
-283 -286 0
-284 -285 0
-284 -286 0
-285 -286 0
287 294 301 308 0
-287 -294 0
-287 -301 0
-287 -308 0
-294 -301 0
-294 -308 0
-301 -308 0
340 341 342 343 344 0
-340 -341 0
-340 -342 0
-340 -343 0
-340 -344 0
-341 -342 0
-341 -343 0
-341 -344 0
-342 -343 0
-342 -344 0
-343 -344 0
345 351 357 363 0
-345 -351 0
-345 -357 0
-345 -363 0
-351 -357 0
-351 -363 0
-357 -363 0
394 395 396 397 0
-394 -395 0
-394 -396 0
-394 -397 0
-395 -396 0
-395 -397 0
-396 -397 0
398 403 408 413 0
-398 -403 0
-398 -408 0
-398 -413 0
-403 -408 0
-403 -413 0
-408 -413 0
443 444 445 446 447 448 0
-443 -444 0
-443 -445 0
-443 -446 0
-443 -447 0
-443 -448 0
-444 -445 0
-444 -446 0
-444 -447 0
-444 -448 0
-445 -446 0
-445 -447 0
-445 -448 0
-446 -447 0
-446 -448 0
-447 -448 0
449 456 463 470 0
-449 -456 0
-449 -463 0
-449 -470 0
-456 -463 0
-456 -470 0
-463 -470 0
502 503 504 505 506 507 0
-502 -503 0
-502 -504 0
-502 -505 0
-502 -506 0
-502 -507 0
-503 -504 0
-503 -505 0
-503 -506 0
-503 -507 0
-504 -505 0
-504 -506 0
-504 -507 0
-505 -506 0
-505 -507 0
-506 -507 0
508 515 522 529 0
-508 -515 0
-508 -522 0
-508 -529 0
-515 -522 0
-515 -529 0
-522 -529 0
561 562 563 564 565 0
-561 -562 0
-561 -563 0
-561 -564 0
-561 -565 0
-562 -563 0
-562 -564 0
-562 -565 0
-563 -564 0
-563 -565 0
-564 -565 0
566 572 578 584 0
-566 -572 0
-566 -578 0
-566 -584 0
-572 -578 0
-572 -584 0
-578 -584 0
615 616 617 618 0
-615 -616 0
-615 -617 0
-615 -618 0
-616 -617 0
-616 -618 0
-617 -618 0
619 624 629 634 0
-619 -624 0
-619 -629 0
-619 -634 0
-624 -629 0
-624 -634 0
-629 -634 0
664 665 666 667 668 669 0
-664 -665 0
-664 -666 0
-664 -667 0
-664 -668 0
-664 -669 0
-665 -666 0
-665 -667 0
-665 -668 0
-665 -669 0
-666 -667 0
-666 -668 0
-666 -669 0
-667 -668 0
-667 -669 0
-668 -669 0
670 677 684 691 0
-670 -677 0
-670 -684 0
-670 -691 0
-677 -684 0
-677 -691 0
-684 -691 0
723 724 725 726 727 728 0
-723 -724 0
-723 -725 0
-723 -726 0
-723 -727 0
-723 -728 0
-724 -725 0
-724 -726 0
-724 -727 0
-724 -728 0
-725 -726 0
-725 -727 0
-725 -728 0
-726 -727 0
-726 -728 0
-727 -728 0
729 736 743 750 0
-729 -736 0
-729 -743 0
-729 -750 0
-736 -743 0
-736 -750 0
-743 -750 0
782 783 784 785 786 0
-782 -783 0
-782 -784 0
-782 -785 0
-782 -786 0
-783 -784 0
-783 -785 0
-783 -786 0
-784 -785 0
-784 -786 0
-785 -786 0
787 793 799 805 0
-787 -793 0
-787 -799 0
-787 -805 0
-793 -799 0
-793 -805 0
-799 -805 0
836 837 838 839 0
-836 -837 0
-836 -838 0
-836 -839 0
-837 -838 0
-837 -839 0
-838 -839 0
840 845 850 855 0
-840 -845 0
-840 -850 0
-840 -855 0
-845 -850 0
-845 -855 0
-850 -855 0
885 886 887 888 889 890 0
-885 -886 0
-885 -887 0
-885 -888 0
-885 -889 0
-885 -890 0
-886 -887 0
-886 -888 0
-886 -889 0
-886 -890 0
-887 -888 0
-887 -889 0
-887 -890 0
-888 -889 0
-888 -890 0
-889 -890 0
891 898 905 912 0
-891 -898 0
-891 -905 0
-891 -912 0
-898 -905 0
-898 -912 0
-905 -912 0
944 945 946 947 948 949 0
-944 -945 0
-944 -946 0
-944 -947 0
-944 -948 0
-944 -949 0
-945 -946 0
-945 -947 0
-945 -948 0
-945 -949 0
-946 -947 0
-946 -948 0
-946 -949 0
-947 -948 0
-947 -949 0
-948 -949 0
950 957 964 971 0
-950 -957 0
-950 -964 0
-950 -971 0
-957 -964 0
-957 -971 0
-964 -971 0
1003 1004 1005 1006 1007 0
-1003 -1004 0
-1003 -1005 0
-1003 -1006 0
-1003 -1007 0
-1004 -1005 0
-1004 -1006 0
-1004 -1007 0
-1005 -1006 0
-1005 -1007 0
-1006 -1007 0
1008 1014 1020 1026 0
-1008 -1014 0
-1008 -1020 0
-1008 -1026 0
-1014 -1020 0
-1014 -1026 0
-1020 -1026 0
1057 1058 1059 1060 0
-1057 -1058 0
-1057 -1059 0
-1057 -1060 0
-1058 -1059 0
-1058 -1060 0
-1059 -1060 0
1061 1066 1071 1076 0
-1061 -1066 0
-1061 -1071 0
-1061 -1076 0
-1066 -1071 0
-1066 -1076 0
-1071 -1076 0
1106 1107 1108 1109 1110 1111 0
-1106 -1107 0
-1106 -1108 0
-1106 -1109 0
-1106 -1110 0
-1106 -1111 0
-1107 -1108 0
-1107 -1109 0
-1107 -1110 0
-1107 -1111 0
-1108 -1109 0
-1108 -1110 0
-1108 -1111 0
-1109 -1110 0
-1109 -1111 0
-1110 -1111 0
1112 1119 1126 1133 0
-1112 -1119 0
-1112 -1126 0
-1112 -1133 0
-1119 -1126 0
-1119 -1133 0
-1126 -1133 0
1165 1166 1167 1168 1169 1170 0
-1165 -1166 0
-1165 -1167 0
-1165 -1168 0
-1165 -1169 0
-1165 -1170 0
-1166 -1167 0
-1166 -1168 0
-1166 -1169 0
-1166 -1170 0
-1167 -1168 0
-1167 -1169 0
-1167 -1170 0
-1168 -1169 0
-1168 -1170 0
-1169 -1170 0
1171 1178 1185 1192 0
-1171 -1178 0
-1171 -1185 0
-1171 -1192 0
-1178 -1185 0
-1178 -1192 0
-1185 -1192 0
1224 1225 1226 1227 1228 0
-1224 -1225 0
-1224 -1226 0
-1224 -1227 0
-1224 -1228 0
-1225 -1226 0
-1225 -1227 0
-1225 -1228 0
-1226 -1227 0
-1226 -1228 0
-1227 -1228 0
1229 1235 1241 1247 0
-1229 -1235 0
-1229 -1241 0
-1229 -1247 0
-1235 -1241 0
-1235 -1247 0
-1241 -1247 0
1278 1279 1280 1281 0
-1278 -1279 0
-1278 -1280 0
-1278 -1281 0
-1279 -1280 0
-1279 -1281 0
-1280 -1281 0
1282 1287 1292 1297 0
-1282 -1287 0
-1282 -1292 0
-1282 -1297 0
-1287 -1292 0
-1287 -1297 0
-1292 -1297 0
1327 1328 1329 1330 1331 1332 0
-1327 -1328 0
-1327 -1329 0
-1327 -1330 0
-1327 -1331 0
-1327 -1332 0
-1328 -1329 0
-1328 -1330 0
-1328 -1331 0
-1328 -1332 0
-1329 -1330 0
-1329 -1331 0
-1329 -1332 0
-1330 -1331 0
-1330 -1332 0
-1331 -1332 0
1333 1340 1347 1354 0
-1333 -1340 0
-1333 -1347 0
-1333 -1354 0
-1340 -1347 0
-1340 -1354 0
-1347 -1354 0
1386 1387 1388 1389 1390 1391 0
-1386 -1387 0
-1386 -1388 0
-1386 -1389 0
-1386 -1390 0
-1386 -1391 0
-1387 -1388 0
-1387 -1389 0
-1387 -1390 0
-1387 -1391 0
-1388 -1389 0
-1388 -1390 0
-1388 -1391 0
-1389 -1390 0
-1389 -1391 0
-1390 -1391 0
1392 1399 1406 1413 0
-1392 -1399 0
-1392 -1406 0
-1392 -1413 0
-1399 -1406 0
-1399 -1413 0
-1406 -1413 0
1445 1446 1447 1448 1449 0
-1445 -1446 0
-1445 -1447 0
-1445 -1448 0
-1445 -1449 0
-1446 -1447 0
-1446 -1448 0
-1446 -1449 0
-1447 -1448 0
-1447 -1449 0
-1448 -1449 0
1450 1456 1462 1468 0
-1450 -1456 0
-1450 -1462 0
-1450 -1468 0
-1456 -1462 0
-1456 -1468 0
-1462 -1468 0
1499 1500 1501 1502 0
-1499 -1500 0
-1499 -1501 0
-1499 -1502 0
-1500 -1501 0
-1500 -1502 0
-1501 -1502 0
1503 1508 1513 1518 0
-1503 -1508 0
-1503 -1513 0
-1503 -1518 0
-1508 -1513 0
-1508 -1518 0
-1513 -1518 0
-8 1 0
-8 7 0
-1 -7 8 0
-15 1 0
-15 14 0
-1 -14 15 0
-22 1 0
-22 21 0
-1 -21 22 0
-29 1 0
-29 28 0
-1 -28 29 0
-9 2 0
-9 7 0
-2 -7 9 0
-16 2 0
-16 14 0
-2 -14 16 0
-23 2 0
-23 21 0
-2 -21 23 0
-30 2 0
-30 28 0
-2 -28 30 0
-10 3 0
-10 7 0
-3 -7 10 0
-17 3 0
-17 14 0
-3 -14 17 0
-24 3 0
-24 21 0
-3 -21 24 0
-31 3 0
-31 28 0
-3 -28 31 0
-11 4 0
-11 7 0
-4 -7 11 0
-18 4 0
-18 14 0
-4 -14 18 0
-25 4 0
-25 21 0
-4 -21 25 0
-32 4 0
-32 28 0
-4 -28 32 0
-12 5 0
-12 7 0
-5 -7 12 0
-19 5 0
-19 14 0
-5 -14 19 0
-26 5 0
-26 21 0
-5 -21 26 0
-33 5 0
-33 28 0
-5 -28 33 0
-13 6 0
-13 7 0
-6 -7 13 0
-20 6 0
-20 14 0
-6 -14 20 0
-27 6 0
-27 21 0
-6 -21 27 0
-34 6 0
-34 28 0
-6 -28 34 0
-67 60 0
-67 66 0
-60 -66 67 0
-74 60 0
-74 73 0
-60 -73 74 0
-81 60 0
-81 80 0
-60 -80 81 0
-88 60 0
-88 87 0
-60 -87 88 0
-68 61 0
-68 66 0
-61 -66 68 0
-75 61 0
-75 73 0
-61 -73 75 0
-82 61 0
-82 80 0
-61 -80 82 0
-89 61 0
-89 87 0
-61 -87 89 0
-69 62 0
-69 66 0
-62 -66 69 0
-76 62 0
-76 73 0
-62 -73 76 0
-83 62 0
-83 80 0
-62 -80 83 0
-90 62 0
-90 87 0
-62 -87 90 0
-70 63 0
-70 66 0
-63 -66 70 0
-77 63 0
-77 73 0
-63 -73 77 0
-84 63 0
-84 80 0
-63 -80 84 0
-91 63 0
-91 87 0
-63 -87 91 0
-71 64 0
-71 66 0
-64 -66 71 0
-78 64 0
-78 73 0
-64 -73 78 0
-85 64 0
-85 80 0
-64 -80 85 0
-92 64 0
-92 87 0
-64 -87 92 0
-72 65 0
-72 66 0
-65 -66 72 0
-79 65 0
-79 73 0
-65 -73 79 0
-86 65 0
-86 80 0
-65 -80 86 0
-93 65 0
-93 87 0
-65 -87 93 0
-125 119 0
-125 124 0
-119 -124 125 0
-131 119 0
-131 130 0
-119 -130 131 0
-137 119 0
-137 136 0
-119 -136 137 0
-143 119 0
-143 142 0
-119 -142 143 0
-126 120 0
-126 124 0
-120 -124 126 0
-132 120 0
-132 130 0
-120 -130 132 0
-138 120 0
-138 136 0
-120 -136 138 0
-144 120 0
-144 142 0
-120 -142 144 0
-127 121 0
-127 124 0
-121 -124 127 0
-133 121 0
-133 130 0
-121 -130 133 0
-139 121 0
-139 136 0
-121 -136 139 0
-145 121 0
-145 142 0
-121 -142 145 0
-128 122 0
-128 124 0
-122 -124 128 0
-134 122 0
-134 130 0
-122 -130 134 0
-140 122 0
-140 136 0
-122 -136 140 0
-146 122 0
-146 142 0
-122 -142 146 0
-129 123 0
-129 124 0
-123 -124 129 0
-135 123 0
-135 130 0
-123 -130 135 0
-141 123 0
-141 136 0
-123 -136 141 0
-147 123 0
-147 142 0
-123 -142 147 0
-178 173 0
-178 177 0
-173 -177 178 0
-183 173 0
-183 182 0
-173 -182 183 0
-188 173 0
-188 187 0
-173 -187 188 0
-193 173 0
-193 192 0
-173 -192 193 0
-179 174 0
-179 177 0
-174 -177 179 0
-184 174 0
-184 182 0
-174 -182 184 0
-189 174 0
-189 187 0
-174 -187 189 0
-194 174 0
-194 192 0
-174 -192 194 0
-180 175 0
-180 177 0
-175 -177 180 0
-185 175 0
-185 182 0
-175 -182 185 0
-190 175 0
-190 187 0
-175 -187 190 0
-195 175 0
-195 192 0
-175 -192 195 0
-181 176 0
-181 177 0
-176 -177 181 0
-186 176 0
-186 182 0
-176 -182 186 0
-191 176 0
-191 187 0
-176 -187 191 0
-196 176 0
-196 192 0
-176 -192 196 0
-229 222 0
-229 228 0
-222 -228 229 0
-236 222 0
-236 235 0
-222 -235 236 0
-243 222 0
-243 242 0
-222 -242 243 0
-250 222 0
-250 249 0
-222 -249 250 0
-230 223 0
-230 228 0
-223 -228 230 0
-237 223 0
-237 235 0
-223 -235 237 0
-244 223 0
-244 242 0
-223 -242 244 0
-251 223 0
-251 249 0
-223 -249 251 0
-231 224 0
-231 228 0
-224 -228 231 0
-238 224 0
-238 235 0
-224 -235 238 0
-245 224 0
-245 242 0
-224 -242 245 0
-252 224 0
-252 249 0
-224 -249 252 0
-232 225 0
-232 228 0
-225 -228 232 0
-239 225 0
-239 235 0
-225 -235 239 0
-246 225 0
-246 242 0
-225 -242 246 0
-253 225 0
-253 249 0
-225 -249 253 0
-233 226 0
-233 228 0
-226 -228 233 0
-240 226 0
-240 235 0
-226 -235 240 0
-247 226 0
-247 242 0
-226 -242 247 0
-254 226 0
-254 249 0
-226 -249 254 0
-234 227 0
-234 228 0
-227 -228 234 0
-241 227 0
-241 235 0
-227 -235 241 0
-248 227 0
-248 242 0
-227 -242 248 0
-255 227 0
-255 249 0
-227 -249 255 0
-288 281 0
-288 287 0
-281 -287 288 0
-295 281 0
-295 294 0
-281 -294 295 0
-302 281 0
-302 301 0
-281 -301 302 0
-309 281 0
-309 308 0
-281 -308 309 0
-289 282 0
-289 287 0
-282 -287 289 0
-296 282 0
-296 294 0
-282 -294 296 0
-303 282 0
-303 301 0
-282 -301 303 0
-310 282 0
-310 308 0
-282 -308 310 0
-290 283 0
-290 287 0
-283 -287 290 0
-297 283 0
-297 294 0
-283 -294 297 0
-304 283 0
-304 301 0
-283 -301 304 0
-311 283 0
-311 308 0
-283 -308 311 0
-291 284 0
-291 287 0
-284 -287 291 0
-298 284 0
-298 294 0
-284 -294 298 0
-305 284 0
-305 301 0
-284 -301 305 0
-312 284 0
-312 308 0
-284 -308 312 0
-292 285 0
-292 287 0
-285 -287 292 0
-299 285 0
-299 294 0
-285 -294 299 0
-306 285 0
-306 301 0
-285 -301 306 0
-313 285 0
-313 308 0
-285 -308 313 0
-293 286 0
-293 287 0
-286 -287 293 0
-300 286 0
-300 294 0
-286 -294 300 0
-307 286 0
-307 301 0
-286 -301 307 0
-314 286 0
-314 308 0
-286 -308 314 0
-346 340 0
-346 345 0
-340 -345 346 0
-352 340 0
-352 351 0
-340 -351 352 0
-358 340 0
-358 357 0
-340 -357 358 0
-364 340 0
-364 363 0
-340 -363 364 0
-347 341 0
-347 345 0
-341 -345 347 0
-353 341 0
-353 351 0
-341 -351 353 0
-359 341 0
-359 357 0
-341 -357 359 0
-365 341 0
-365 363 0
-341 -363 365 0
-348 342 0
-348 345 0
-342 -345 348 0
-354 342 0
-354 351 0
-342 -351 354 0
-360 342 0
-360 357 0
-342 -357 360 0
-366 342 0
-366 363 0
-342 -363 366 0
-349 343 0
-349 345 0
-343 -345 349 0
-355 343 0
-355 351 0
-343 -351 355 0
-361 343 0
-361 357 0
-343 -357 361 0
-367 343 0
-367 363 0
-343 -363 367 0
-350 344 0
-350 345 0
-344 -345 350 0
-356 344 0
-356 351 0
-344 -351 356 0
-362 344 0
-362 357 0
-344 -357 362 0
-368 344 0
-368 363 0
-344 -363 368 0
-399 394 0
-399 398 0
-394 -398 399 0
-404 394 0
-404 403 0
-394 -403 404 0
-409 394 0
-409 408 0
-394 -408 409 0
-414 394 0
-414 413 0
-394 -413 414 0
-400 395 0
-400 398 0
-395 -398 400 0
-405 395 0
-405 403 0
-395 -403 405 0
-410 395 0
-410 408 0
-395 -408 410 0
-415 395 0
-415 413 0
-395 -413 415 0
-401 396 0
-401 398 0
-396 -398 401 0
-406 396 0
-406 403 0
-396 -403 406 0
-411 396 0
-411 408 0
-396 -408 411 0
-416 396 0
-416 413 0
-396 -413 416 0
-402 397 0
-402 398 0
-397 -398 402 0
-407 397 0
-407 403 0
-397 -403 407 0
-412 397 0
-412 408 0
-397 -408 412 0
-417 397 0
-417 413 0
-397 -413 417 0
-450 443 0
-450 449 0
-443 -449 450 0
-457 443 0
-457 456 0
-443 -456 457 0
-464 443 0
-464 463 0
-443 -463 464 0
-471 443 0
-471 470 0
-443 -470 471 0
-451 444 0
-451 449 0
-444 -449 451 0
-458 444 0
-458 456 0
-444 -456 458 0
-465 444 0
-465 463 0
-444 -463 465 0
-472 444 0
-472 470 0
-444 -470 472 0
-452 445 0
-452 449 0
-445 -449 452 0
-459 445 0
-459 456 0
-445 -456 459 0
-466 445 0
-466 463 0
-445 -463 466 0
-473 445 0
-473 470 0
-445 -470 473 0
-453 446 0
-453 449 0
-446 -449 453 0
-460 446 0
-460 456 0
-446 -456 460 0
-467 446 0
-467 463 0
-446 -463 467 0
-474 446 0
-474 470 0
-446 -470 474 0
-454 447 0
-454 449 0
-447 -449 454 0
-461 447 0
-461 456 0
-447 -456 461 0
-468 447 0
-468 463 0
-447 -463 468 0
-475 447 0
-475 470 0
-447 -470 475 0
-455 448 0
-455 449 0
-448 -449 455 0
-462 448 0
-462 456 0
-448 -456 462 0
-469 448 0
-469 463 0
-448 -463 469 0
-476 448 0
-476 470 0
-448 -470 476 0
-509 502 0
-509 508 0
-502 -508 509 0
-516 502 0
-516 515 0
-502 -515 516 0
-523 502 0
-523 522 0
-502 -522 523 0
-530 502 0
-530 529 0
-502 -529 530 0
-510 503 0
-510 508 0
-503 -508 510 0
-517 503 0
-517 515 0
-503 -515 517 0
-524 503 0
-524 522 0
-503 -522 524 0
-531 503 0
-531 529 0
-503 -529 531 0
-511 504 0
-511 508 0
-504 -508 511 0
-518 504 0
-518 515 0
-504 -515 518 0
-525 504 0
-525 522 0
-504 -522 525 0
-532 504 0
-532 529 0
-504 -529 532 0
-512 505 0
-512 508 0
-505 -508 512 0
-519 505 0
-519 515 0
-505 -515 519 0
-526 505 0
-526 522 0
-505 -522 526 0
-533 505 0
-533 529 0
-505 -529 533 0
-513 506 0
-513 508 0
-506 -508 513 0
-520 506 0
-520 515 0
-506 -515 520 0
-527 506 0
-527 522 0
-506 -522 527 0
-534 506 0
-534 529 0
-506 -529 534 0
-514 507 0
-514 508 0
-507 -508 514 0
-521 507 0
-521 515 0
-507 -515 521 0
-528 507 0
-528 522 0
-507 -522 528 0
-535 507 0
-535 529 0
-507 -529 535 0
-567 561 0
-567 566 0
-561 -566 567 0
-573 561 0
-573 572 0
-561 -572 573 0
-579 561 0
-579 578 0
-561 -578 579 0
-585 561 0
-585 584 0
-561 -584 585 0
-568 562 0
-568 566 0
-562 -566 568 0
-574 562 0
-574 572 0
-562 -572 574 0
-580 562 0
-580 578 0
-562 -578 580 0
-586 562 0
-586 584 0
-562 -584 586 0
-569 563 0
-569 566 0
-563 -566 569 0
-575 563 0
-575 572 0
-563 -572 575 0
-581 563 0
-581 578 0
-563 -578 581 0
-587 563 0
-587 584 0
-563 -584 587 0
-570 564 0
-570 566 0
-564 -566 570 0
-576 564 0
-576 572 0
-564 -572 576 0
-582 564 0
-582 578 0
-564 -578 582 0
-588 564 0
-588 584 0
-564 -584 588 0
-571 565 0
-571 566 0
-565 -566 571 0
-577 565 0
-577 572 0
-565 -572 577 0
-583 565 0
-583 578 0
-565 -578 583 0
-589 565 0
-589 584 0
-565 -584 589 0
-620 615 0
-620 619 0
-615 -619 620 0
-625 615 0
-625 624 0
-615 -624 625 0
-630 615 0
-630 629 0
-615 -629 630 0
-635 615 0
-635 634 0
-615 -634 635 0
-621 616 0
-621 619 0
-616 -619 621 0
-626 616 0
-626 624 0
-616 -624 626 0
-631 616 0
-631 629 0
-616 -629 631 0
-636 616 0
-636 634 0
-616 -634 636 0
-622 617 0
-622 619 0
-617 -619 622 0
-627 617 0
-627 624 0
-617 -624 627 0
-632 617 0
-632 629 0
-617 -629 632 0
-637 617 0
-637 634 0
-617 -634 637 0
-623 618 0
-623 619 0
-618 -619 623 0
-628 618 0
-628 624 0
-618 -624 628 0
-633 618 0
-633 629 0
-618 -629 633 0
-638 618 0
-638 634 0
-618 -634 638 0
-671 664 0
-671 670 0
-664 -670 671 0
-678 664 0
-678 677 0
-664 -677 678 0
-685 664 0
-685 684 0
-664 -684 685 0
-692 664 0
-692 691 0
-664 -691 692 0
-672 665 0
-672 670 0
-665 -670 672 0
-679 665 0
-679 677 0
-665 -677 679 0
-686 665 0
-686 684 0
-665 -684 686 0
-693 665 0
-693 691 0
-665 -691 693 0
-673 666 0
-673 670 0
-666 -670 673 0
-680 666 0
-680 677 0
-666 -677 680 0
-687 666 0
-687 684 0
-666 -684 687 0
-694 666 0
-694 691 0
-666 -691 694 0
-674 667 0
-674 670 0
-667 -670 674 0
-681 667 0
-681 677 0
-667 -677 681 0
-688 667 0
-688 684 0
-667 -684 688 0
-695 667 0
-695 691 0
-667 -691 695 0
-675 668 0
-675 670 0
-668 -670 675 0
-682 668 0
-682 677 0
-668 -677 682 0
-689 668 0
-689 684 0
-668 -684 689 0
-696 668 0
-696 691 0
-668 -691 696 0
-676 669 0
-676 670 0
-669 -670 676 0
-683 669 0
-683 677 0
-669 -677 683 0
-690 669 0
-690 684 0
-669 -684 690 0
-697 669 0
-697 691 0
-669 -691 697 0
-730 723 0
-730 729 0
-723 -729 730 0
-737 723 0
-737 736 0
-723 -736 737 0
-744 723 0
-744 743 0
-723 -743 744 0
-751 723 0
-751 750 0
-723 -750 751 0
-731 724 0
-731 729 0
-724 -729 731 0
-738 724 0
-738 736 0
-724 -736 738 0
-745 724 0
-745 743 0
-724 -743 745 0
-752 724 0
-752 750 0
-724 -750 752 0
-732 725 0
-732 729 0
-725 -729 732 0
-739 725 0
-739 736 0
-725 -736 739 0
-746 725 0
-746 743 0
-725 -743 746 0
-753 725 0
-753 750 0
-725 -750 753 0
-733 726 0
-733 729 0
-726 -729 733 0
-740 726 0
-740 736 0
-726 -736 740 0
-747 726 0
-747 743 0
-726 -743 747 0
-754 726 0
-754 750 0
-726 -750 754 0
-734 727 0
-734 729 0
-727 -729 734 0
-741 727 0
-741 736 0
-727 -736 741 0
-748 727 0
-748 743 0
-727 -743 748 0
-755 727 0
-755 750 0
-727 -750 755 0
-735 728 0
-735 729 0
-728 -729 735 0
-742 728 0
-742 736 0
-728 -736 742 0
-749 728 0
-749 743 0
-728 -743 749 0
-756 728 0
-756 750 0
-728 -750 756 0
-788 782 0
-788 787 0
-782 -787 788 0
-794 782 0
-794 793 0
-782 -793 794 0
-800 782 0
-800 799 0
-782 -799 800 0
-806 782 0
-806 805 0
-782 -805 806 0
-789 783 0
-789 787 0
-783 -787 789 0
-795 783 0
-795 793 0
-783 -793 795 0
-801 783 0
-801 799 0
-783 -799 801 0
-807 783 0
-807 805 0
-783 -805 807 0
-790 784 0
-790 787 0
-784 -787 790 0
-796 784 0
-796 793 0
-784 -793 796 0
-802 784 0
-802 799 0
-784 -799 802 0
-808 784 0
-808 805 0
-784 -805 808 0
-791 785 0
-791 787 0
-785 -787 791 0
-797 785 0
-797 793 0
-785 -793 797 0
-803 785 0
-803 799 0
-785 -799 803 0
-809 785 0
-809 805 0
-785 -805 809 0
-792 786 0
-792 787 0
-786 -787 792 0
-798 786 0
-798 793 0
-786 -793 798 0
-804 786 0
-804 799 0
-786 -799 804 0
-810 786 0
-810 805 0
-786 -805 810 0
-841 836 0
-841 840 0
-836 -840 841 0
-846 836 0
-846 845 0
-836 -845 846 0
-851 836 0
-851 850 0
-836 -850 851 0
-856 836 0
-856 855 0
-836 -855 856 0
-842 837 0
-842 840 0
-837 -840 842 0
-847 837 0
-847 845 0
-837 -845 847 0
-852 837 0
-852 850 0
-837 -850 852 0
-857 837 0
-857 855 0
-837 -855 857 0
-843 838 0
-843 840 0
-838 -840 843 0
-848 838 0
-848 845 0
-838 -845 848 0
-853 838 0
-853 850 0
-838 -850 853 0
-858 838 0
-858 855 0
-838 -855 858 0
-844 839 0
-844 840 0
-839 -840 844 0
-849 839 0
-849 845 0
-839 -845 849 0
-854 839 0
-854 850 0
-839 -850 854 0
-859 839 0
-859 855 0
-839 -855 859 0
-892 885 0
-892 891 0
-885 -891 892 0
-899 885 0
-899 898 0
-885 -898 899 0
-906 885 0
-906 905 0
-885 -905 906 0
-913 885 0
-913 912 0
-885 -912 913 0
-893 886 0
-893 891 0
-886 -891 893 0
-900 886 0
-900 898 0
-886 -898 900 0
-907 886 0
-907 905 0
-886 -905 907 0
-914 886 0
-914 912 0
-886 -912 914 0
-894 887 0
-894 891 0
-887 -891 894 0
-901 887 0
-901 898 0
-887 -898 901 0
-908 887 0
-908 905 0
-887 -905 908 0
-915 887 0
-915 912 0
-887 -912 915 0
-895 888 0
-895 891 0
-888 -891 895 0
-902 888 0
-902 898 0
-888 -898 902 0
-909 888 0
-909 905 0
-888 -905 909 0
-916 888 0
-916 912 0
-888 -912 916 0
-896 889 0
-896 891 0
-889 -891 896 0
-903 889 0
-903 898 0
-889 -898 903 0
-910 889 0
-910 905 0
-889 -905 910 0
-917 889 0
-917 912 0
-889 -912 917 0
-897 890 0
-897 891 0
-890 -891 897 0
-904 890 0
-904 898 0
-890 -898 904 0
-911 890 0
-911 905 0
-890 -905 911 0
-918 890 0
-918 912 0
-890 -912 918 0
-951 944 0
-951 950 0
-944 -950 951 0
-958 944 0
-958 957 0
-944 -957 958 0
-965 944 0
-965 964 0
-944 -964 965 0
-972 944 0
-972 971 0
-944 -971 972 0
-952 945 0
-952 950 0
-945 -950 952 0
-959 945 0
-959 957 0
-945 -957 959 0
-966 945 0
-966 964 0
-945 -964 966 0
-973 945 0
-973 971 0
-945 -971 973 0
-953 946 0
-953 950 0
-946 -950 953 0
-960 946 0
-960 957 0
-946 -957 960 0
-967 946 0
-967 964 0
-946 -964 967 0
-974 946 0
-974 971 0
-946 -971 974 0
-954 947 0
-954 950 0
-947 -950 954 0
-961 947 0
-961 957 0
-947 -957 961 0
-968 947 0
-968 964 0
-947 -964 968 0
-975 947 0
-975 971 0
-947 -971 975 0
-955 948 0
-955 950 0
-948 -950 955 0
-962 948 0
-962 957 0
-948 -957 962 0
-969 948 0
-969 964 0
-948 -964 969 0
-976 948 0
-976 971 0
-948 -971 976 0
-956 949 0
-956 950 0
-949 -950 956 0
-963 949 0
-963 957 0
-949 -957 963 0
-970 949 0
-970 964 0
-949 -964 970 0
-977 949 0
-977 971 0
-949 -971 977 0
-1009 1003 0
-1009 1008 0
-1003 -1008 1009 0
-1015 1003 0
-1015 1014 0
-1003 -1014 1015 0
-1021 1003 0
-1021 1020 0
-1003 -1020 1021 0
-1027 1003 0
-1027 1026 0
-1003 -1026 1027 0
-1010 1004 0
-1010 1008 0
-1004 -1008 1010 0
-1016 1004 0
-1016 1014 0
-1004 -1014 1016 0
-1022 1004 0
-1022 1020 0
-1004 -1020 1022 0
-1028 1004 0
-1028 1026 0
-1004 -1026 1028 0
-1011 1005 0
-1011 1008 0
-1005 -1008 1011 0
-1017 1005 0
-1017 1014 0
-1005 -1014 1017 0
-1023 1005 0
-1023 1020 0
-1005 -1020 1023 0
-1029 1005 0
-1029 1026 0
-1005 -1026 1029 0
-1012 1006 0
-1012 1008 0
-1006 -1008 1012 0
-1018 1006 0
-1018 1014 0
-1006 -1014 1018 0
-1024 1006 0
-1024 1020 0
-1006 -1020 1024 0
-1030 1006 0
-1030 1026 0
-1006 -1026 1030 0
-1013 1007 0
-1013 1008 0
-1007 -1008 1013 0
-1019 1007 0
-1019 1014 0
-1007 -1014 1019 0
-1025 1007 0
-1025 1020 0
-1007 -1020 1025 0
-1031 1007 0
-1031 1026 0
-1007 -1026 1031 0
-1062 1057 0
-1062 1061 0
-1057 -1061 1062 0
-1067 1057 0
-1067 1066 0
-1057 -1066 1067 0
-1072 1057 0
-1072 1071 0
-1057 -1071 1072 0
-1077 1057 0
-1077 1076 0
-1057 -1076 1077 0
-1063 1058 0
-1063 1061 0
-1058 -1061 1063 0
-1068 1058 0
-1068 1066 0
-1058 -1066 1068 0
-1073 1058 0
-1073 1071 0
-1058 -1071 1073 0
-1078 1058 0
-1078 1076 0
-1058 -1076 1078 0
-1064 1059 0
-1064 1061 0
-1059 -1061 1064 0
-1069 1059 0
-1069 1066 0
-1059 -1066 1069 0
-1074 1059 0
-1074 1071 0
-1059 -1071 1074 0
-1079 1059 0
-1079 1076 0
-1059 -1076 1079 0
-1065 1060 0
-1065 1061 0
-1060 -1061 1065 0
-1070 1060 0
-1070 1066 0
-1060 -1066 1070 0
-1075 1060 0
-1075 1071 0
-1060 -1071 1075 0
-1080 1060 0
-1080 1076 0
-1060 -1076 1080 0
-1113 1106 0
-1113 1112 0
-1106 -1112 1113 0
-1120 1106 0
-1120 1119 0
-1106 -1119 1120 0
-1127 1106 0
-1127 1126 0
-1106 -1126 1127 0
-1134 1106 0
-1134 1133 0
-1106 -1133 1134 0
-1114 1107 0
-1114 1112 0
-1107 -1112 1114 0
-1121 1107 0
-1121 1119 0
-1107 -1119 1121 0
-1128 1107 0
-1128 1126 0
-1107 -1126 1128 0
-1135 1107 0
-1135 1133 0
-1107 -1133 1135 0
-1115 1108 0
-1115 1112 0
-1108 -1112 1115 0
-1122 1108 0
-1122 1119 0
-1108 -1119 1122 0
-1129 1108 0
-1129 1126 0
-1108 -1126 1129 0
-1136 1108 0
-1136 1133 0
-1108 -1133 1136 0
-1116 1109 0
-1116 1112 0
-1109 -1112 1116 0
-1123 1109 0
-1123 1119 0
-1109 -1119 1123 0
-1130 1109 0
-1130 1126 0
-1109 -1126 1130 0
-1137 1109 0
-1137 1133 0
-1109 -1133 1137 0
-1117 1110 0
-1117 1112 0
-1110 -1112 1117 0
-1124 1110 0
-1124 1119 0
-1110 -1119 1124 0
-1131 1110 0
-1131 1126 0
-1110 -1126 1131 0
-1138 1110 0
-1138 1133 0
-1110 -1133 1138 0
-1118 1111 0
-1118 1112 0
-1111 -1112 1118 0
-1125 1111 0
-1125 1119 0
-1111 -1119 1125 0
-1132 1111 0
-1132 1126 0
-1111 -1126 1132 0
-1139 1111 0
-1139 1133 0
-1111 -1133 1139 0
-1172 1165 0
-1172 1171 0
-1165 -1171 1172 0
-1179 1165 0
-1179 1178 0
-1165 -1178 1179 0
-1186 1165 0
-1186 1185 0
-1165 -1185 1186 0
-1193 1165 0
-1193 1192 0
-1165 -1192 1193 0
-1173 1166 0
-1173 1171 0
-1166 -1171 1173 0
-1180 1166 0
-1180 1178 0
-1166 -1178 1180 0
-1187 1166 0
-1187 1185 0
-1166 -1185 1187 0
-1194 1166 0
-1194 1192 0
-1166 -1192 1194 0
-1174 1167 0
-1174 1171 0
-1167 -1171 1174 0
-1181 1167 0
-1181 1178 0
-1167 -1178 1181 0
-1188 1167 0
-1188 1185 0
-1167 -1185 1188 0
-1195 1167 0
-1195 1192 0
-1167 -1192 1195 0
-1175 1168 0
-1175 1171 0
-1168 -1171 1175 0
-1182 1168 0
-1182 1178 0
-1168 -1178 1182 0
-1189 1168 0
-1189 1185 0
-1168 -1185 1189 0
-1196 1168 0
-1196 1192 0
-1168 -1192 1196 0
-1176 1169 0
-1176 1171 0
-1169 -1171 1176 0
-1183 1169 0
-1183 1178 0
-1169 -1178 1183 0
-1190 1169 0
-1190 1185 0
-1169 -1185 1190 0
-1197 1169 0
-1197 1192 0
-1169 -1192 1197 0
-1177 1170 0
-1177 1171 0
-1170 -1171 1177 0
-1184 1170 0
-1184 1178 0
-1170 -1178 1184 0
-1191 1170 0
-1191 1185 0
-1170 -1185 1191 0
-1198 1170 0
-1198 1192 0
-1170 -1192 1198 0
-1230 1224 0
-1230 1229 0
-1224 -1229 1230 0
-1236 1224 0
-1236 1235 0
-1224 -1235 1236 0
-1242 1224 0
-1242 1241 0
-1224 -1241 1242 0
-1248 1224 0
-1248 1247 0
-1224 -1247 1248 0
-1231 1225 0
-1231 1229 0
-1225 -1229 1231 0
-1237 1225 0
-1237 1235 0
-1225 -1235 1237 0
-1243 1225 0
-1243 1241 0
-1225 -1241 1243 0
-1249 1225 0
-1249 1247 0
-1225 -1247 1249 0
-1232 1226 0
-1232 1229 0
-1226 -1229 1232 0
-1238 1226 0
-1238 1235 0
-1226 -1235 1238 0
-1244 1226 0
-1244 1241 0
-1226 -1241 1244 0
-1250 1226 0
-1250 1247 0
-1226 -1247 1250 0
-1233 1227 0
-1233 1229 0
-1227 -1229 1233 0
-1239 1227 0
-1239 1235 0
-1227 -1235 1239 0
-1245 1227 0
-1245 1241 0
-1227 -1241 1245 0
-1251 1227 0
-1251 1247 0
-1227 -1247 1251 0
-1234 1228 0
-1234 1229 0
-1228 -1229 1234 0
-1240 1228 0
-1240 1235 0
-1228 -1235 1240 0
-1246 1228 0
-1246 1241 0
-1228 -1241 1246 0
-1252 1228 0
-1252 1247 0
-1228 -1247 1252 0
-1283 1278 0
-1283 1282 0
-1278 -1282 1283 0
-1288 1278 0
-1288 1287 0
-1278 -1287 1288 0
-1293 1278 0
-1293 1292 0
-1278 -1292 1293 0
-1298 1278 0
-1298 1297 0
-1278 -1297 1298 0
-1284 1279 0
-1284 1282 0
-1279 -1282 1284 0
-1289 1279 0
-1289 1287 0
-1279 -1287 1289 0
-1294 1279 0
-1294 1292 0
-1279 -1292 1294 0
-1299 1279 0
-1299 1297 0
-1279 -1297 1299 0
-1285 1280 0
-1285 1282 0
-1280 -1282 1285 0
-1290 1280 0
-1290 1287 0
-1280 -1287 1290 0
-1295 1280 0
-1295 1292 0
-1280 -1292 1295 0
-1300 1280 0
-1300 1297 0
-1280 -1297 1300 0
-1286 1281 0
-1286 1282 0
-1281 -1282 1286 0
-1291 1281 0
-1291 1287 0
-1281 -1287 1291 0
-1296 1281 0
-1296 1292 0
-1281 -1292 1296 0
-1301 1281 0
-1301 1297 0
-1281 -1297 1301 0
-1334 1327 0
-1334 1333 0
-1327 -1333 1334 0
-1341 1327 0
-1341 1340 0
-1327 -1340 1341 0
-1348 1327 0
-1348 1347 0
-1327 -1347 1348 0
-1355 1327 0
-1355 1354 0
-1327 -1354 1355 0
-1335 1328 0
-1335 1333 0
-1328 -1333 1335 0
-1342 1328 0
-1342 1340 0
-1328 -1340 1342 0
-1349 1328 0
-1349 1347 0
-1328 -1347 1349 0
-1356 1328 0
-1356 1354 0
-1328 -1354 1356 0
-1336 1329 0
-1336 1333 0
-1329 -1333 1336 0
-1343 1329 0
-1343 1340 0
-1329 -1340 1343 0
-1350 1329 0
-1350 1347 0
-1329 -1347 1350 0
-1357 1329 0
-1357 1354 0
-1329 -1354 1357 0
-1337 1330 0
-1337 1333 0
-1330 -1333 1337 0
-1344 1330 0
-1344 1340 0
-1330 -1340 1344 0
-1351 1330 0
-1351 1347 0
-1330 -1347 1351 0
-1358 1330 0
-1358 1354 0
-1330 -1354 1358 0
-1338 1331 0
-1338 1333 0
-1331 -1333 1338 0
-1345 1331 0
-1345 1340 0
-1331 -1340 1345 0
-1352 1331 0
-1352 1347 0
-1331 -1347 1352 0
-1359 1331 0
-1359 1354 0
-1331 -1354 1359 0
-1339 1332 0
-1339 1333 0
-1332 -1333 1339 0
-1346 1332 0
-1346 1340 0
-1332 -1340 1346 0
-1353 1332 0
-1353 1347 0
-1332 -1347 1353 0
-1360 1332 0
-1360 1354 0
-1332 -1354 1360 0
-1393 1386 0
-1393 1392 0
-1386 -1392 1393 0
-1400 1386 0
-1400 1399 0
-1386 -1399 1400 0
-1407 1386 0
-1407 1406 0
-1386 -1406 1407 0
-1414 1386 0
-1414 1413 0
-1386 -1413 1414 0
-1394 1387 0
-1394 1392 0
-1387 -1392 1394 0
-1401 1387 0
-1401 1399 0
-1387 -1399 1401 0
-1408 1387 0
-1408 1406 0
-1387 -1406 1408 0
-1415 1387 0
-1415 1413 0
-1387 -1413 1415 0
-1395 1388 0
-1395 1392 0
-1388 -1392 1395 0
-1402 1388 0
-1402 1399 0
-1388 -1399 1402 0
-1409 1388 0
-1409 1406 0
-1388 -1406 1409 0
-1416 1388 0
-1416 1413 0
-1388 -1413 1416 0
-1396 1389 0
-1396 1392 0
-1389 -1392 1396 0
-1403 1389 0
-1403 1399 0
-1389 -1399 1403 0
-1410 1389 0
-1410 1406 0
-1389 -1406 1410 0
-1417 1389 0
-1417 1413 0
-1389 -1413 1417 0
-1397 1390 0
-1397 1392 0
-1390 -1392 1397 0
-1404 1390 0
-1404 1399 0
-1390 -1399 1404 0
-1411 1390 0
-1411 1406 0
-1390 -1406 1411 0
-1418 1390 0
-1418 1413 0
-1390 -1413 1418 0
-1398 1391 0
-1398 1392 0
-1391 -1392 1398 0
-1405 1391 0
-1405 1399 0
-1391 -1399 1405 0
-1412 1391 0
-1412 1406 0
-1391 -1406 1412 0
-1419 1391 0
-1419 1413 0
-1391 -1413 1419 0
-1451 1445 0
-1451 1450 0
-1445 -1450 1451 0
-1457 1445 0
-1457 1456 0
-1445 -1456 1457 0
-1463 1445 0
-1463 1462 0
-1445 -1462 1463 0
-1469 1445 0
-1469 1468 0
-1445 -1468 1469 0
-1452 1446 0
-1452 1450 0
-1446 -1450 1452 0
-1458 1446 0
-1458 1456 0
-1446 -1456 1458 0
-1464 1446 0
-1464 1462 0
-1446 -1462 1464 0
-1470 1446 0
-1470 1468 0
-1446 -1468 1470 0
-1453 1447 0
-1453 1450 0
-1447 -1450 1453 0
-1459 1447 0
-1459 1456 0
-1447 -1456 1459 0
-1465 1447 0
-1465 1462 0
-1447 -1462 1465 0
-1471 1447 0
-1471 1468 0
-1447 -1468 1471 0
-1454 1448 0
-1454 1450 0
-1448 -1450 1454 0
-1460 1448 0
-1460 1456 0
-1448 -1456 1460 0
-1466 1448 0
-1466 1462 0
-1448 -1462 1466 0
-1472 1448 0
-1472 1468 0
-1448 -1468 1472 0
-1455 1449 0
-1455 1450 0
-1449 -1450 1455 0
-1461 1449 0
-1461 1456 0
-1449 -1456 1461 0
-1467 1449 0
-1467 1462 0
-1449 -1462 1467 0
-1473 1449 0
-1473 1468 0
-1449 -1468 1473 0
-1504 1499 0
-1504 1503 0
-1499 -1503 1504 0
-1509 1499 0
-1509 1508 0
-1499 -1508 1509 0
-1514 1499 0
-1514 1513 0
-1499 -1513 1514 0
-1519 1499 0
-1519 1518 0
-1499 -1518 1519 0
-1505 1500 0
-1505 1503 0
-1500 -1503 1505 0
-1510 1500 0
-1510 1508 0
-1500 -1508 1510 0
-1515 1500 0
-1515 1513 0
-1500 -1513 1515 0
-1520 1500 0
-1520 1518 0
-1500 -1518 1520 0
-1506 1501 0
-1506 1503 0
-1501 -1503 1506 0
-1511 1501 0
-1511 1508 0
-1501 -1508 1511 0
-1516 1501 0
-1516 1513 0
-1501 -1513 1516 0
-1521 1501 0
-1521 1518 0
-1501 -1518 1521 0
-1507 1502 0
-1507 1503 0
-1502 -1503 1507 0
-1512 1502 0
-1512 1508 0
-1502 -1508 1512 0
-1517 1502 0
-1517 1513 0
-1502 -1513 1517 0
-1522 1502 0
-1522 1518 0
-1502 -1518 1522 0
-8 197 0
-67 197 0
-125 197 0
-178 197 0
-197 8 67 125 178 0
-9 198 0
-68 198 0
-125 198 0
-126 198 0
-178 198 0
-179 198 0
-198 9 68 125 126 178 179 0
-10 199 0
-69 199 0
-126 199 0
-127 199 0
-178 199 0
-179 199 0
-180 199 0
-199 10 69 126 127 178 179 180 0
-11 200 0
-70 200 0
-127 200 0
-128 200 0
-179 200 0
-180 200 0
-181 200 0
-200 11 70 127 128 179 180 181 0
-12 201 0
-71 201 0
-128 201 0
-129 201 0
-180 201 0
-181 201 0
-201 12 71 128 129 180 181 0
-13 202 0
-72 202 0
-129 202 0
-181 202 0
-202 13 72 129 181 0
-15 203 0
-74 203 0
-131 203 0
-183 203 0
-203 15 74 131 183 0
-16 204 0
-75 204 0
-131 204 0
-132 204 0
-183 204 0
-184 204 0
-204 16 75 131 132 183 184 0
-17 205 0
-76 205 0
-132 205 0
-133 205 0
-183 205 0
-184 205 0
-185 205 0
-205 17 76 132 133 183 184 185 0
-18 206 0
-77 206 0
-133 206 0
-134 206 0
-184 206 0
-185 206 0
-186 206 0
-206 18 77 133 134 184 185 186 0
-19 207 0
-78 207 0
-134 207 0
-135 207 0
-185 207 0
-186 207 0
-207 19 78 134 135 185 186 0
-20 208 0
-79 208 0
-135 208 0
-186 208 0
-208 20 79 135 186 0
-22 209 0
-81 209 0
-137 209 0
-188 209 0
-209 22 81 137 188 0
-23 210 0
-82 210 0
-137 210 0
-138 210 0
-188 210 0
-189 210 0
-210 23 82 137 138 188 189 0
-24 211 0
-83 211 0
-138 211 0
-139 211 0
-188 211 0
-189 211 0
-190 211 0
-211 24 83 138 139 188 189 190 0
-25 212 0
-84 212 0
-139 212 0
-140 212 0
-189 212 0
-190 212 0
-191 212 0
-212 25 84 139 140 189 190 191 0
-26 213 0
-85 213 0
-140 213 0
-141 213 0
-190 213 0
-191 213 0
-213 26 85 140 141 190 191 0
-27 214 0
-86 214 0
-141 214 0
-191 214 0
-214 27 86 141 191 0
-29 215 0
-88 215 0
-143 215 0
-193 215 0
-215 29 88 143 193 0
-30 216 0
-89 216 0
-143 216 0
-144 216 0
-193 216 0
-194 216 0
-216 30 89 143 144 193 194 0
-31 217 0
-90 217 0
-144 217 0
-145 217 0
-193 217 0
-194 217 0
-195 217 0
-217 31 90 144 145 193 194 195 0
-32 218 0
-91 218 0
-145 218 0
-146 218 0
-194 218 0
-195 218 0
-196 218 0
-218 32 91 145 146 194 195 196 0
-33 219 0
-92 219 0
-146 219 0
-147 219 0
-195 219 0
-196 219 0
-219 33 92 146 147 195 196 0
-34 220 0
-93 220 0
-147 220 0
-196 220 0
-220 34 93 147 196 0
-229 418 0
-288 418 0
-346 418 0
-399 418 0
-418 229 288 346 399 0
-230 419 0
-289 419 0
-346 419 0
-347 419 0
-399 419 0
-400 419 0
-419 230 289 346 347 399 400 0
-231 420 0
-290 420 0
-347 420 0
-348 420 0
-399 420 0
-400 420 0
-401 420 0
-420 231 290 347 348 399 400 401 0
-232 421 0
-291 421 0
-348 421 0
-349 421 0
-400 421 0
-401 421 0
-402 421 0
-421 232 291 348 349 400 401 402 0
-233 422 0
-292 422 0
-349 422 0
-350 422 0
-401 422 0
-402 422 0
-422 233 292 349 350 401 402 0
-234 423 0
-293 423 0
-350 423 0
-402 423 0
-423 234 293 350 402 0
-236 424 0
-295 424 0
-352 424 0
-404 424 0
-424 236 295 352 404 0
-237 425 0
-296 425 0
-352 425 0
-353 425 0
-404 425 0
-405 425 0
-425 237 296 352 353 404 405 0
-238 426 0
-297 426 0
-353 426 0
-354 426 0
-404 426 0
-405 426 0
-406 426 0
-426 238 297 353 354 404 405 406 0
-239 427 0
-298 427 0
-354 427 0
-355 427 0
-405 427 0
-406 427 0
-407 427 0
-427 239 298 354 355 405 406 407 0
-240 428 0
-299 428 0
-355 428 0
-356 428 0
-406 428 0
-407 428 0
-428 240 299 355 356 406 407 0
-241 429 0
-300 429 0
-356 429 0
-407 429 0
-429 241 300 356 407 0
-243 430 0
-302 430 0
-358 430 0
-409 430 0
-430 243 302 358 409 0
-244 431 0
-303 431 0
-358 431 0
-359 431 0
-409 431 0
-410 431 0
-431 244 303 358 359 409 410 0
-245 432 0
-304 432 0
-359 432 0
-360 432 0
-409 432 0
-410 432 0
-411 432 0
-432 245 304 359 360 409 410 411 0
-246 433 0
-305 433 0
-360 433 0
-361 433 0
-410 433 0
-411 433 0
-412 433 0
-433 246 305 360 361 410 411 412 0
-247 434 0
-306 434 0
-361 434 0
-362 434 0
-411 434 0
-412 434 0
-434 247 306 361 362 411 412 0
-248 435 0
-307 435 0
-362 435 0
-412 435 0
-435 248 307 362 412 0
-250 436 0
-309 436 0
-364 436 0
-414 436 0
-436 250 309 364 414 0
-251 437 0
-310 437 0
-364 437 0
-365 437 0
-414 437 0
-415 437 0
-437 251 310 364 365 414 415 0
-252 438 0
-311 438 0
-365 438 0
-366 438 0
-414 438 0
-415 438 0
-416 438 0
-438 252 311 365 366 414 415 416 0
-253 439 0
-312 439 0
-366 439 0
-367 439 0
-415 439 0
-416 439 0
-417 439 0
-439 253 312 366 367 415 416 417 0
-254 440 0
-313 440 0
-367 440 0
-368 440 0
-416 440 0
-417 440 0
-440 254 313 367 368 416 417 0
-255 441 0
-314 441 0
-368 441 0
-417 441 0
-441 255 314 368 417 0
-450 639 0
-509 639 0
-567 639 0
-620 639 0
-639 450 509 567 620 0
-451 640 0
-510 640 0
-567 640 0
-568 640 0
-620 640 0
-621 640 0
-640 451 510 567 568 620 621 0
-452 641 0
-511 641 0
-568 641 0
-569 641 0
-620 641 0
-621 641 0
-622 641 0
-641 452 511 568 569 620 621 622 0
-453 642 0
-512 642 0
-569 642 0
-570 642 0
-621 642 0
-622 642 0
-623 642 0
-642 453 512 569 570 621 622 623 0
-454 643 0
-513 643 0
-570 643 0
-571 643 0
-622 643 0
-623 643 0
-643 454 513 570 571 622 623 0
-455 644 0
-514 644 0
-571 644 0
-623 644 0
-644 455 514 571 623 0
-457 645 0
-516 645 0
-573 645 0
-625 645 0
-645 457 516 573 625 0
-458 646 0
-517 646 0
-573 646 0
-574 646 0
-625 646 0
-626 646 0
-646 458 517 573 574 625 626 0
-459 647 0
-518 647 0
-574 647 0
-575 647 0
-625 647 0
-626 647 0
-627 647 0
-647 459 518 574 575 625 626 627 0
-460 648 0
-519 648 0
-575 648 0
-576 648 0
-626 648 0
-627 648 0
-628 648 0
-648 460 519 575 576 626 627 628 0
-461 649 0
-520 649 0
-576 649 0
-577 649 0
-627 649 0
-628 649 0
-649 461 520 576 577 627 628 0
-462 650 0
-521 650 0
-577 650 0
-628 650 0
-650 462 521 577 628 0
-464 651 0
-523 651 0
-579 651 0
-630 651 0
-651 464 523 579 630 0
-465 652 0
-524 652 0
-579 652 0
-580 652 0
-630 652 0
-631 652 0
-652 465 524 579 580 630 631 0
-466 653 0
-525 653 0
-580 653 0
-581 653 0
-630 653 0
-631 653 0
-632 653 0
-653 466 525 580 581 630 631 632 0
-467 654 0
-526 654 0
-581 654 0
-582 654 0
-631 654 0
-632 654 0
-633 654 0
-654 467 526 581 582 631 632 633 0
-468 655 0
-527 655 0
-582 655 0
-583 655 0
-632 655 0
-633 655 0
-655 468 527 582 583 632 633 0
-469 656 0
-528 656 0
-583 656 0
-633 656 0
-656 469 528 583 633 0
-471 657 0
-530 657 0
-585 657 0
-635 657 0
-657 471 530 585 635 0
-472 658 0
-531 658 0
-585 658 0
-586 658 0
-635 658 0
-636 658 0
-658 472 531 585 586 635 636 0
-473 659 0
-532 659 0
-586 659 0
-587 659 0
-635 659 0
-636 659 0
-637 659 0
-659 473 532 586 587 635 636 637 0
-474 660 0
-533 660 0
-587 660 0
-588 660 0
-636 660 0
-637 660 0
-638 660 0
-660 474 533 587 588 636 637 638 0
-475 661 0
-534 661 0
-588 661 0
-589 661 0
-637 661 0
-638 661 0
-661 475 534 588 589 637 638 0
-476 662 0
-535 662 0
-589 662 0
-638 662 0
-662 476 535 589 638 0
-671 860 0
-730 860 0
-788 860 0
-841 860 0
-860 671 730 788 841 0
-672 861 0
-731 861 0
-788 861 0
-789 861 0
-841 861 0
-842 861 0
-861 672 731 788 789 841 842 0
-673 862 0
-732 862 0
-789 862 0
-790 862 0
-841 862 0
-842 862 0
-843 862 0
-862 673 732 789 790 841 842 843 0
-674 863 0
-733 863 0
-790 863 0
-791 863 0
-842 863 0
-843 863 0
-844 863 0
-863 674 733 790 791 842 843 844 0
-675 864 0
-734 864 0
-791 864 0
-792 864 0
-843 864 0
-844 864 0
-864 675 734 791 792 843 844 0
-676 865 0
-735 865 0
-792 865 0
-844 865 0
-865 676 735 792 844 0
-678 866 0
-737 866 0
-794 866 0
-846 866 0
-866 678 737 794 846 0
-679 867 0
-738 867 0
-794 867 0
-795 867 0
-846 867 0
-847 867 0
-867 679 738 794 795 846 847 0
-680 868 0
-739 868 0
-795 868 0
-796 868 0
-846 868 0
-847 868 0
-848 868 0
-868 680 739 795 796 846 847 848 0
-681 869 0
-740 869 0
-796 869 0
-797 869 0
-847 869 0
-848 869 0
-849 869 0
-869 681 740 796 797 847 848 849 0
-682 870 0
-741 870 0
-797 870 0
-798 870 0
-848 870 0
-849 870 0
-870 682 741 797 798 848 849 0
-683 871 0
-742 871 0
-798 871 0
-849 871 0
-871 683 742 798 849 0
-685 872 0
-744 872 0
-800 872 0
-851 872 0
-872 685 744 800 851 0
-686 873 0
-745 873 0
-800 873 0
-801 873 0
-851 873 0
-852 873 0
-873 686 745 800 801 851 852 0
-687 874 0
-746 874 0
-801 874 0
-802 874 0
-851 874 0
-852 874 0
-853 874 0
-874 687 746 801 802 851 852 853 0
-688 875 0
-747 875 0
-802 875 0
-803 875 0
-852 875 0
-853 875 0
-854 875 0
-875 688 747 802 803 852 853 854 0
-689 876 0
-748 876 0
-803 876 0
-804 876 0
-853 876 0
-854 876 0
-876 689 748 803 804 853 854 0
-690 877 0
-749 877 0
-804 877 0
-854 877 0
-877 690 749 804 854 0
-692 878 0
-751 878 0
-806 878 0
-856 878 0
-878 692 751 806 856 0
-693 879 0
-752 879 0
-806 879 0
-807 879 0
-856 879 0
-857 879 0
-879 693 752 806 807 856 857 0
-694 880 0
-753 880 0
-807 880 0
-808 880 0
-856 880 0
-857 880 0
-858 880 0
-880 694 753 807 808 856 857 858 0
-695 881 0
-754 881 0
-808 881 0
-809 881 0
-857 881 0
-858 881 0
-859 881 0
-881 695 754 808 809 857 858 859 0
-696 882 0
-755 882 0
-809 882 0
-810 882 0
-858 882 0
-859 882 0
-882 696 755 809 810 858 859 0
-697 883 0
-756 883 0
-810 883 0
-859 883 0
-883 697 756 810 859 0
-892 1081 0
-951 1081 0
-1009 1081 0
-1062 1081 0
-1081 892 951 1009 1062 0
-893 1082 0
-952 1082 0
-1009 1082 0
-1010 1082 0
-1062 1082 0
-1063 1082 0
-1082 893 952 1009 1010 1062 1063 0
-894 1083 0
-953 1083 0
-1010 1083 0
-1011 1083 0
-1062 1083 0
-1063 1083 0
-1064 1083 0
-1083 894 953 1010 1011 1062 1063 1064 0
-895 1084 0
-954 1084 0
-1011 1084 0
-1012 1084 0
-1063 1084 0
-1064 1084 0
-1065 1084 0
-1084 895 954 1011 1012 1063 1064 1065 0
-896 1085 0
-955 1085 0
-1012 1085 0
-1013 1085 0
-1064 1085 0
-1065 1085 0
-1085 896 955 1012 1013 1064 1065 0
-897 1086 0
-956 1086 0
-1013 1086 0
-1065 1086 0
-1086 897 956 1013 1065 0
-899 1087 0
-958 1087 0
-1015 1087 0
-1067 1087 0
-1087 899 958 1015 1067 0
-900 1088 0
-959 1088 0
-1015 1088 0
-1016 1088 0
-1067 1088 0
-1068 1088 0
-1088 900 959 1015 1016 1067 1068 0
-901 1089 0
-960 1089 0
-1016 1089 0
-1017 1089 0
-1067 1089 0
-1068 1089 0
-1069 1089 0
-1089 901 960 1016 1017 1067 1068 1069 0
-902 1090 0
-961 1090 0
-1017 1090 0
-1018 1090 0
-1068 1090 0
-1069 1090 0
-1070 1090 0
-1090 902 961 1017 1018 1068 1069 1070 0
-903 1091 0
-962 1091 0
-1018 1091 0
-1019 1091 0
-1069 1091 0
-1070 1091 0
-1091 903 962 1018 1019 1069 1070 0
-904 1092 0
-963 1092 0
-1019 1092 0
-1070 1092 0
-1092 904 963 1019 1070 0
-906 1093 0
-965 1093 0
-1021 1093 0
-1072 1093 0
-1093 906 965 1021 1072 0
-907 1094 0
-966 1094 0
-1021 1094 0
-1022 1094 0
-1072 1094 0
-1073 1094 0
-1094 907 966 1021 1022 1072 1073 0
-908 1095 0
-967 1095 0
-1022 1095 0
-1023 1095 0
-1072 1095 0
-1073 1095 0
-1074 1095 0
-1095 908 967 1022 1023 1072 1073 1074 0
-909 1096 0
-968 1096 0
-1023 1096 0
-1024 1096 0
-1073 1096 0
-1074 1096 0
-1075 1096 0
-1096 909 968 1023 1024 1073 1074 1075 0
-910 1097 0
-969 1097 0
-1024 1097 0
-1025 1097 0
-1074 1097 0
-1075 1097 0
-1097 910 969 1024 1025 1074 1075 0
-911 1098 0
-970 1098 0
-1025 1098 0
-1075 1098 0
-1098 911 970 1025 1075 0
-913 1099 0
-972 1099 0
-1027 1099 0
-1077 1099 0
-1099 913 972 1027 1077 0
-914 1100 0
-973 1100 0
-1027 1100 0
-1028 1100 0
-1077 1100 0
-1078 1100 0
-1100 914 973 1027 1028 1077 1078 0
-915 1101 0
-974 1101 0
-1028 1101 0
-1029 1101 0
-1077 1101 0
-1078 1101 0
-1079 1101 0
-1101 915 974 1028 1029 1077 1078 1079 0
-916 1102 0
-975 1102 0
-1029 1102 0
-1030 1102 0
-1078 1102 0
-1079 1102 0
-1080 1102 0
-1102 916 975 1029 1030 1078 1079 1080 0
-917 1103 0
-976 1103 0
-1030 1103 0
-1031 1103 0
-1079 1103 0
-1080 1103 0
-1103 917 976 1030 1031 1079 1080 0
-918 1104 0
-977 1104 0
-1031 1104 0
-1080 1104 0
-1104 918 977 1031 1080 0
-1113 1302 0
-1172 1302 0
-1230 1302 0
-1283 1302 0
-1302 1113 1172 1230 1283 0
-1114 1303 0
-1173 1303 0
-1230 1303 0
-1231 1303 0
-1283 1303 0
-1284 1303 0
-1303 1114 1173 1230 1231 1283 1284 0
-1115 1304 0
-1174 1304 0
-1231 1304 0
-1232 1304 0
-1283 1304 0
-1284 1304 0
-1285 1304 0
-1304 1115 1174 1231 1232 1283 1284 1285 0
-1116 1305 0
-1175 1305 0
-1232 1305 0
-1233 1305 0
-1284 1305 0
-1285 1305 0
-1286 1305 0
-1305 1116 1175 1232 1233 1284 1285 1286 0
-1117 1306 0
-1176 1306 0
-1233 1306 0
-1234 1306 0
-1285 1306 0
-1286 1306 0
-1306 1117 1176 1233 1234 1285 1286 0
-1118 1307 0
-1177 1307 0
-1234 1307 0
-1286 1307 0
-1307 1118 1177 1234 1286 0
-1120 1308 0
-1179 1308 0
-1236 1308 0
-1288 1308 0
-1308 1120 1179 1236 1288 0
-1121 1309 0
-1180 1309 0
-1236 1309 0
-1237 1309 0
-1288 1309 0
-1289 1309 0
-1309 1121 1180 1236 1237 1288 1289 0
-1122 1310 0
-1181 1310 0
-1237 1310 0
-1238 1310 0
-1288 1310 0
-1289 1310 0
-1290 1310 0
-1310 1122 1181 1237 1238 1288 1289 1290 0
-1123 1311 0
-1182 1311 0
-1238 1311 0
-1239 1311 0
-1289 1311 0
-1290 1311 0
-1291 1311 0
-1311 1123 1182 1238 1239 1289 1290 1291 0
-1124 1312 0
-1183 1312 0
-1239 1312 0
-1240 1312 0
-1290 1312 0
-1291 1312 0
-1312 1124 1183 1239 1240 1290 1291 0
-1125 1313 0
-1184 1313 0
-1240 1313 0
-1291 1313 0
-1313 1125 1184 1240 1291 0
-1127 1314 0
-1186 1314 0
-1242 1314 0
-1293 1314 0
-1314 1127 1186 1242 1293 0
-1128 1315 0
-1187 1315 0
-1242 1315 0
-1243 1315 0
-1293 1315 0
-1294 1315 0
-1315 1128 1187 1242 1243 1293 1294 0
-1129 1316 0
-1188 1316 0
-1243 1316 0
-1244 1316 0
-1293 1316 0
-1294 1316 0
-1295 1316 0
-1316 1129 1188 1243 1244 1293 1294 1295 0
-1130 1317 0
-1189 1317 0
-1244 1317 0
-1245 1317 0
-1294 1317 0
-1295 1317 0
-1296 1317 0
-1317 1130 1189 1244 1245 1294 1295 1296 0
-1131 1318 0
-1190 1318 0
-1245 1318 0
-1246 1318 0
-1295 1318 0
-1296 1318 0
-1318 1131 1190 1245 1246 1295 1296 0
-1132 1319 0
-1191 1319 0
-1246 1319 0
-1296 1319 0
-1319 1132 1191 1246 1296 0
-1134 1320 0
-1193 1320 0
-1248 1320 0
-1298 1320 0
-1320 1134 1193 1248 1298 0
-1135 1321 0
-1194 1321 0
-1248 1321 0
-1249 1321 0
-1298 1321 0
-1299 1321 0
-1321 1135 1194 1248 1249 1298 1299 0
-1136 1322 0
-1195 1322 0
-1249 1322 0
-1250 1322 0
-1298 1322 0
-1299 1322 0
-1300 1322 0
-1322 1136 1195 1249 1250 1298 1299 1300 0
-1137 1323 0
-1196 1323 0
-1250 1323 0
-1251 1323 0
-1299 1323 0
-1300 1323 0
-1301 1323 0
-1323 1137 1196 1250 1251 1299 1300 1301 0
-1138 1324 0
-1197 1324 0
-1251 1324 0
-1252 1324 0
-1300 1324 0
-1301 1324 0
-1324 1138 1197 1251 1252 1300 1301 0
-1139 1325 0
-1198 1325 0
-1252 1325 0
-1301 1325 0
-1325 1139 1198 1252 1301 0
-1334 1523 0
-1393 1523 0
-1451 1523 0
-1504 1523 0
-1523 1334 1393 1451 1504 0
-1335 1524 0
-1394 1524 0
-1451 1524 0
-1452 1524 0
-1504 1524 0
-1505 1524 0
-1524 1335 1394 1451 1452 1504 1505 0
-1336 1525 0
-1395 1525 0
-1452 1525 0
-1453 1525 0
-1504 1525 0
-1505 1525 0
-1506 1525 0
-1525 1336 1395 1452 1453 1504 1505 1506 0
-1337 1526 0
-1396 1526 0
-1453 1526 0
-1454 1526 0
-1505 1526 0
-1506 1526 0
-1507 1526 0
-1526 1337 1396 1453 1454 1505 1506 1507 0
-1338 1527 0
-1397 1527 0
-1454 1527 0
-1455 1527 0
-1506 1527 0
-1507 1527 0
-1527 1338 1397 1454 1455 1506 1507 0
-1339 1528 0
-1398 1528 0
-1455 1528 0
-1507 1528 0
-1528 1339 1398 1455 1507 0
-1341 1529 0
-1400 1529 0
-1457 1529 0
-1509 1529 0
-1529 1341 1400 1457 1509 0
-1342 1530 0
-1401 1530 0
-1457 1530 0
-1458 1530 0
-1509 1530 0
-1510 1530 0
-1530 1342 1401 1457 1458 1509 1510 0
-1343 1531 0
-1402 1531 0
-1458 1531 0
-1459 1531 0
-1509 1531 0
-1510 1531 0
-1511 1531 0
-1531 1343 1402 1458 1459 1509 1510 1511 0
-1344 1532 0
-1403 1532 0
-1459 1532 0
-1460 1532 0
-1510 1532 0
-1511 1532 0
-1512 1532 0
-1532 1344 1403 1459 1460 1510 1511 1512 0
-1345 1533 0
-1404 1533 0
-1460 1533 0
-1461 1533 0
-1511 1533 0
-1512 1533 0
-1533 1345 1404 1460 1461 1511 1512 0
-1346 1534 0
-1405 1534 0
-1461 1534 0
-1512 1534 0
-1534 1346 1405 1461 1512 0
-1348 1535 0
-1407 1535 0
-1463 1535 0
-1514 1535 0
-1535 1348 1407 1463 1514 0
-1349 1536 0
-1408 1536 0
-1463 1536 0
-1464 1536 0
-1514 1536 0
-1515 1536 0
-1536 1349 1408 1463 1464 1514 1515 0
-1350 1537 0
-1409 1537 0
-1464 1537 0
-1465 1537 0
-1514 1537 0
-1515 1537 0
-1516 1537 0
-1537 1350 1409 1464 1465 1514 1515 1516 0
-1351 1538 0
-1410 1538 0
-1465 1538 0
-1466 1538 0
-1515 1538 0
-1516 1538 0
-1517 1538 0
-1538 1351 1410 1465 1466 1515 1516 1517 0
-1352 1539 0
-1411 1539 0
-1466 1539 0
-1467 1539 0
-1516 1539 0
-1517 1539 0
-1539 1352 1411 1466 1467 1516 1517 0
-1353 1540 0
-1412 1540 0
-1467 1540 0
-1517 1540 0
-1540 1353 1412 1467 1517 0
-1355 1541 0
-1414 1541 0
-1469 1541 0
-1519 1541 0
-1541 1355 1414 1469 1519 0
-1356 1542 0
-1415 1542 0
-1469 1542 0
-1470 1542 0
-1519 1542 0
-1520 1542 0
-1542 1356 1415 1469 1470 1519 1520 0
-1357 1543 0
-1416 1543 0
-1470 1543 0
-1471 1543 0
-1519 1543 0
-1520 1543 0
-1521 1543 0
-1543 1357 1416 1470 1471 1519 1520 1521 0
-1358 1544 0
-1417 1544 0
-1471 1544 0
-1472 1544 0
-1520 1544 0
-1521 1544 0
-1522 1544 0
-1544 1358 1417 1471 1472 1520 1521 1522 0
-1359 1545 0
-1418 1545 0
-1472 1545 0
-1473 1545 0
-1521 1545 0
-1522 1545 0
-1545 1359 1418 1472 1473 1521 1522 0
-1360 1546 0
-1419 1546 0
-1473 1546 0
-1522 1546 0
-1546 1360 1419 1473 1522 0
-8 -67 0
-8 -125 0
-8 -178 0
-9 -68 0
-9 -125 0
-9 -126 0
-9 -178 0
-9 -179 0
-10 -69 0
-10 -126 0
-10 -127 0
-10 -178 0
-10 -179 0
-10 -180 0
-11 -70 0
-11 -127 0
-11 -128 0
-11 -179 0
-11 -180 0
-11 -181 0
-12 -71 0
-12 -128 0
-12 -129 0
-12 -180 0
-12 -181 0
-13 -72 0
-13 -129 0
-13 -181 0
-67 -125 0
-67 -178 0
-68 -125 0
-68 -126 0
-68 -178 0
-68 -179 0
-69 -126 0
-69 -127 0
-69 -178 0
-69 -179 0
-69 -180 0
-70 -127 0
-70 -128 0
-70 -179 0
-70 -180 0
-70 -181 0
-71 -128 0
-71 -129 0
-71 -180 0
-71 -181 0
-72 -129 0
-72 -181 0
-125 -178 0
-125 -179 0
-126 -178 0
-126 -179 0
-126 -180 0
-127 -178 0
-127 -179 0
-127 -180 0
-127 -181 0
-128 -179 0
-128 -180 0
-128 -181 0
-129 -180 0
-129 -181 0
-15 -74 0
-15 -131 0
-15 -183 0
-16 -75 0
-16 -131 0
-16 -132 0
-16 -183 0
-16 -184 0
-17 -76 0
-17 -132 0
-17 -133 0
-17 -183 0
-17 -184 0
-17 -185 0
-18 -77 0
-18 -133 0
-18 -134 0
-18 -184 0
-18 -185 0
-18 -186 0
-19 -78 0
-19 -134 0
-19 -135 0
-19 -185 0
-19 -186 0
-20 -79 0
-20 -135 0
-20 -186 0
-74 -131 0
-74 -183 0
-75 -131 0
-75 -132 0
-75 -183 0
-75 -184 0
-76 -132 0
-76 -133 0
-76 -183 0
-76 -184 0
-76 -185 0
-77 -133 0
-77 -134 0
-77 -184 0
-77 -185 0
-77 -186 0
-78 -134 0
-78 -135 0
-78 -185 0
-78 -186 0
-79 -135 0
-79 -186 0
-131 -183 0
-131 -184 0
-132 -183 0
-132 -184 0
-132 -185 0
-133 -183 0
-133 -184 0
-133 -185 0
-133 -186 0
-134 -184 0
-134 -185 0
-134 -186 0
-135 -185 0
-135 -186 0
-22 -81 0
-22 -137 0
-22 -188 0
-23 -82 0
-23 -137 0
-23 -138 0
-23 -188 0
-23 -189 0
-24 -83 0
-24 -138 0
-24 -139 0
-24 -188 0
-24 -189 0
-24 -190 0
-25 -84 0
-25 -139 0
-25 -140 0
-25 -189 0
-25 -190 0
-25 -191 0
-26 -85 0
-26 -140 0
-26 -141 0
-26 -190 0
-26 -191 0
-27 -86 0
-27 -141 0
-27 -191 0
-81 -137 0
-81 -188 0
-82 -137 0
-82 -138 0
-82 -188 0
-82 -189 0
-83 -138 0
-83 -139 0
-83 -188 0
-83 -189 0
-83 -190 0
-84 -139 0
-84 -140 0
-84 -189 0
-84 -190 0
-84 -191 0
-85 -140 0
-85 -141 0
-85 -190 0
-85 -191 0
-86 -141 0
-86 -191 0
-137 -188 0
-137 -189 0
-138 -188 0
-138 -189 0
-138 -190 0
-139 -188 0
-139 -189 0
-139 -190 0
-139 -191 0
-140 -189 0
-140 -190 0
-140 -191 0
-141 -190 0
-141 -191 0
-29 -88 0
-29 -143 0
-29 -193 0
-30 -89 0
-30 -143 0
-30 -144 0
-30 -193 0
-30 -194 0
-31 -90 0
-31 -144 0
-31 -145 0
-31 -193 0
-31 -194 0
-31 -195 0
-32 -91 0
-32 -145 0
-32 -146 0
-32 -194 0
-32 -195 0
-32 -196 0
-33 -92 0
-33 -146 0
-33 -147 0
-33 -195 0
-33 -196 0
-34 -93 0
-34 -147 0
-34 -196 0
-88 -143 0
-88 -193 0
-89 -143 0
-89 -144 0
-89 -193 0
-89 -194 0
-90 -144 0
-90 -145 0
-90 -193 0
-90 -194 0
-90 -195 0
-91 -145 0
-91 -146 0
-91 -194 0
-91 -195 0
-91 -196 0
-92 -146 0
-92 -147 0
-92 -195 0
-92 -196 0
-93 -147 0
-93 -196 0
-143 -193 0
-143 -194 0
-144 -193 0
-144 -194 0
-144 -195 0
-145 -193 0
-145 -194 0
-145 -195 0
-145 -196 0
-146 -194 0
-146 -195 0
-146 -196 0
-147 -195 0
-147 -196 0
-229 -288 0
-229 -346 0
-229 -399 0
-230 -289 0
-230 -346 0
-230 -347 0
-230 -399 0
-230 -400 0
-231 -290 0
-231 -347 0
-231 -348 0
-231 -399 0
-231 -400 0
-231 -401 0
-232 -291 0
-232 -348 0
-232 -349 0
-232 -400 0
-232 -401 0
-232 -402 0
-233 -292 0
-233 -349 0
-233 -350 0
-233 -401 0
-233 -402 0
-234 -293 0
-234 -350 0
-234 -402 0
-288 -346 0
-288 -399 0
-289 -346 0
-289 -347 0
-289 -399 0
-289 -400 0
-290 -347 0
-290 -348 0
-290 -399 0
-290 -400 0
-290 -401 0
-291 -348 0
-291 -349 0
-291 -400 0
-291 -401 0
-291 -402 0
-292 -349 0
-292 -350 0
-292 -401 0
-292 -402 0
-293 -350 0
-293 -402 0
-346 -399 0
-346 -400 0
-347 -399 0
-347 -400 0
-347 -401 0
-348 -399 0
-348 -400 0
-348 -401 0
-348 -402 0
-349 -400 0
-349 -401 0
-349 -402 0
-350 -401 0
-350 -402 0
-236 -295 0
-236 -352 0
-236 -404 0
-237 -296 0
-237 -352 0
-237 -353 0
-237 -404 0
-237 -405 0
-238 -297 0
-238 -353 0
-238 -354 0
-238 -404 0
-238 -405 0
-238 -406 0
-239 -298 0
-239 -354 0
-239 -355 0
-239 -405 0
-239 -406 0
-239 -407 0
-240 -299 0
-240 -355 0
-240 -356 0
-240 -406 0
-240 -407 0
-241 -300 0
-241 -356 0
-241 -407 0
-295 -352 0
-295 -404 0
-296 -352 0
-296 -353 0
-296 -404 0
-296 -405 0
-297 -353 0
-297 -354 0
-297 -404 0
-297 -405 0
-297 -406 0
-298 -354 0
-298 -355 0
-298 -405 0
-298 -406 0
-298 -407 0
-299 -355 0
-299 -356 0
-299 -406 0
-299 -407 0
-300 -356 0
-300 -407 0
-352 -404 0
-352 -405 0
-353 -404 0
-353 -405 0
-353 -406 0
-354 -404 0
-354 -405 0
-354 -406 0
-354 -407 0
-355 -405 0
-355 -406 0
-355 -407 0
-356 -406 0
-356 -407 0
-243 -302 0
-243 -358 0
-243 -409 0
-244 -303 0
-244 -358 0
-244 -359 0
-244 -409 0
-244 -410 0
-245 -304 0
-245 -359 0
-245 -360 0
-245 -409 0
-245 -410 0
-245 -411 0
-246 -305 0
-246 -360 0
-246 -361 0
-246 -410 0
-246 -411 0
-246 -412 0
-247 -306 0
-247 -361 0
-247 -362 0
-247 -411 0
-247 -412 0
-248 -307 0
-248 -362 0
-248 -412 0
-302 -358 0
-302 -409 0
-303 -358 0
-303 -359 0
-303 -409 0
-303 -410 0
-304 -359 0
-304 -360 0
-304 -409 0
-304 -410 0
-304 -411 0
-305 -360 0
-305 -361 0
-305 -410 0
-305 -411 0
-305 -412 0
-306 -361 0
-306 -362 0
-306 -411 0
-306 -412 0
-307 -362 0
-307 -412 0
-358 -409 0
-358 -410 0
-359 -409 0
-359 -410 0
-359 -411 0
-360 -409 0
-360 -410 0
-360 -411 0
-360 -412 0
-361 -410 0
-361 -411 0
-361 -412 0
-362 -411 0
-362 -412 0
-250 -309 0
-250 -364 0
-250 -414 0
-251 -310 0
-251 -364 0
-251 -365 0
-251 -414 0
-251 -415 0
-252 -311 0
-252 -365 0
-252 -366 0
-252 -414 0
-252 -415 0
-252 -416 0
-253 -312 0
-253 -366 0
-253 -367 0
-253 -415 0
-253 -416 0
-253 -417 0
-254 -313 0
-254 -367 0
-254 -368 0
-254 -416 0
-254 -417 0
-255 -314 0
-255 -368 0
-255 -417 0
-309 -364 0
-309 -414 0
-310 -364 0
-310 -365 0
-310 -414 0
-310 -415 0
-311 -365 0
-311 -366 0
-311 -414 0
-311 -415 0
-311 -416 0
-312 -366 0
-312 -367 0
-312 -415 0
-312 -416 0
-312 -417 0
-313 -367 0
-313 -368 0
-313 -416 0
-313 -417 0
-314 -368 0
-314 -417 0
-364 -414 0
-364 -415 0
-365 -414 0
-365 -415 0
-365 -416 0
-366 -414 0
-366 -415 0
-366 -416 0
-366 -417 0
-367 -415 0
-367 -416 0
-367 -417 0
-368 -416 0
-368 -417 0
-450 -509 0
-450 -567 0
-450 -620 0
-451 -510 0
-451 -567 0
-451 -568 0
-451 -620 0
-451 -621 0
-452 -511 0
-452 -568 0
-452 -569 0
-452 -620 0
-452 -621 0
-452 -622 0
-453 -512 0
-453 -569 0
-453 -570 0
-453 -621 0
-453 -622 0
-453 -623 0
-454 -513 0
-454 -570 0
-454 -571 0
-454 -622 0
-454 -623 0
-455 -514 0
-455 -571 0
-455 -623 0
-509 -567 0
-509 -620 0
-510 -567 0
-510 -568 0
-510 -620 0
-510 -621 0
-511 -568 0
-511 -569 0
-511 -620 0
-511 -621 0
-511 -622 0
-512 -569 0
-512 -570 0
-512 -621 0
-512 -622 0
-512 -623 0
-513 -570 0
-513 -571 0
-513 -622 0
-513 -623 0
-514 -571 0
-514 -623 0
-567 -620 0
-567 -621 0
-568 -620 0
-568 -621 0
-568 -622 0
-569 -620 0
-569 -621 0
-569 -622 0
-569 -623 0
-570 -621 0
-570 -622 0
-570 -623 0
-571 -622 0
-571 -623 0
-457 -516 0
-457 -573 0
-457 -625 0
-458 -517 0
-458 -573 0
-458 -574 0
-458 -625 0
-458 -626 0
-459 -518 0
-459 -574 0
-459 -575 0
-459 -625 0
-459 -626 0
-459 -627 0
-460 -519 0
-460 -575 0
-460 -576 0
-460 -626 0
-460 -627 0
-460 -628 0
-461 -520 0
-461 -576 0
-461 -577 0
-461 -627 0
-461 -628 0
-462 -521 0
-462 -577 0
-462 -628 0
-516 -573 0
-516 -625 0
-517 -573 0
-517 -574 0
-517 -625 0
-517 -626 0
-518 -574 0
-518 -575 0
-518 -625 0
-518 -626 0
-518 -627 0
-519 -575 0
-519 -576 0
-519 -626 0
-519 -627 0
-519 -628 0
-520 -576 0
-520 -577 0
-520 -627 0
-520 -628 0
-521 -577 0
-521 -628 0
-573 -625 0
-573 -626 0
-574 -625 0
-574 -626 0
-574 -627 0
-575 -625 0
-575 -626 0
-575 -627 0
-575 -628 0
-576 -626 0
-576 -627 0
-576 -628 0
-577 -627 0
-577 -628 0
-464 -523 0
-464 -579 0
-464 -630 0
-465 -524 0
-465 -579 0
-465 -580 0
-465 -630 0
-465 -631 0
-466 -525 0
-466 -580 0
-466 -581 0
-466 -630 0
-466 -631 0
-466 -632 0
-467 -526 0
-467 -581 0
-467 -582 0
-467 -631 0
-467 -632 0
-467 -633 0
-468 -527 0
-468 -582 0
-468 -583 0
-468 -632 0
-468 -633 0
-469 -528 0
-469 -583 0
-469 -633 0
-523 -579 0
-523 -630 0
-524 -579 0
-524 -580 0
-524 -630 0
-524 -631 0
-525 -580 0
-525 -581 0
-525 -630 0
-525 -631 0
-525 -632 0
-526 -581 0
-526 -582 0
-526 -631 0
-526 -632 0
-526 -633 0
-527 -582 0
-527 -583 0
-527 -632 0
-527 -633 0
-528 -583 0
-528 -633 0
-579 -630 0
-579 -631 0
-580 -630 0
-580 -631 0
-580 -632 0
-581 -630 0
-581 -631 0
-581 -632 0
-581 -633 0
-582 -631 0
-582 -632 0
-582 -633 0
-583 -632 0
-583 -633 0
-471 -530 0
-471 -585 0
-471 -635 0
-472 -531 0
-472 -585 0
-472 -586 0
-472 -635 0
-472 -636 0
-473 -532 0
-473 -586 0
-473 -587 0
-473 -635 0
-473 -636 0
-473 -637 0
-474 -533 0
-474 -587 0
-474 -588 0
-474 -636 0
-474 -637 0
-474 -638 0
-475 -534 0
-475 -588 0
-475 -589 0
-475 -637 0
-475 -638 0
-476 -535 0
-476 -589 0
-476 -638 0
-530 -585 0
-530 -635 0
-531 -585 0
-531 -586 0
-531 -635 0
-531 -636 0
-532 -586 0
-532 -587 0
-532 -635 0
-532 -636 0
-532 -637 0
-533 -587 0
-533 -588 0
-533 -636 0
-533 -637 0
-533 -638 0
-534 -588 0
-534 -589 0
-534 -637 0
-534 -638 0
-535 -589 0
-535 -638 0
-585 -635 0
-585 -636 0
-586 -635 0
-586 -636 0
-586 -637 0
-587 -635 0
-587 -636 0
-587 -637 0
-587 -638 0
-588 -636 0
-588 -637 0
-588 -638 0
-589 -637 0
-589 -638 0
-671 -730 0
-671 -788 0
-671 -841 0
-672 -731 0
-672 -788 0
-672 -789 0
-672 -841 0
-672 -842 0
-673 -732 0
-673 -789 0
-673 -790 0
-673 -841 0
-673 -842 0
-673 -843 0
-674 -733 0
-674 -790 0
-674 -791 0
-674 -842 0
-674 -843 0
-674 -844 0
-675 -734 0
-675 -791 0
-675 -792 0
-675 -843 0
-675 -844 0
-676 -735 0
-676 -792 0
-676 -844 0
-730 -788 0
-730 -841 0
-731 -788 0
-731 -789 0
-731 -841 0
-731 -842 0
-732 -789 0
-732 -790 0
-732 -841 0
-732 -842 0
-732 -843 0
-733 -790 0
-733 -791 0
-733 -842 0
-733 -843 0
-733 -844 0
-734 -791 0
-734 -792 0
-734 -843 0
-734 -844 0
-735 -792 0
-735 -844 0
-788 -841 0
-788 -842 0
-789 -841 0
-789 -842 0
-789 -843 0
-790 -841 0
-790 -842 0
-790 -843 0
-790 -844 0
-791 -842 0
-791 -843 0
-791 -844 0
-792 -843 0
-792 -844 0
-678 -737 0
-678 -794 0
-678 -846 0
-679 -738 0
-679 -794 0
-679 -795 0
-679 -846 0
-679 -847 0
-680 -739 0
-680 -795 0
-680 -796 0
-680 -846 0
-680 -847 0
-680 -848 0
-681 -740 0
-681 -796 0
-681 -797 0
-681 -847 0
-681 -848 0
-681 -849 0
-682 -741 0
-682 -797 0
-682 -798 0
-682 -848 0
-682 -849 0
-683 -742 0
-683 -798 0
-683 -849 0
-737 -794 0
-737 -846 0
-738 -794 0
-738 -795 0
-738 -846 0
-738 -847 0
-739 -795 0
-739 -796 0
-739 -846 0
-739 -847 0
-739 -848 0
-740 -796 0
-740 -797 0
-740 -847 0
-740 -848 0
-740 -849 0
-741 -797 0
-741 -798 0
-741 -848 0
-741 -849 0
-742 -798 0
-742 -849 0
-794 -846 0
-794 -847 0
-795 -846 0
-795 -847 0
-795 -848 0
-796 -846 0
-796 -847 0
-796 -848 0
-796 -849 0
-797 -847 0
-797 -848 0
-797 -849 0
-798 -848 0
-798 -849 0
-685 -744 0
-685 -800 0
-685 -851 0
-686 -745 0
-686 -800 0
-686 -801 0
-686 -851 0
-686 -852 0
-687 -746 0
-687 -801 0
-687 -802 0
-687 -851 0
-687 -852 0
-687 -853 0
-688 -747 0
-688 -802 0
-688 -803 0
-688 -852 0
-688 -853 0
-688 -854 0
-689 -748 0
-689 -803 0
-689 -804 0
-689 -853 0
-689 -854 0
-690 -749 0
-690 -804 0
-690 -854 0
-744 -800 0
-744 -851 0
-745 -800 0
-745 -801 0
-745 -851 0
-745 -852 0
-746 -801 0
-746 -802 0
-746 -851 0
-746 -852 0
-746 -853 0
-747 -802 0
-747 -803 0
-747 -852 0
-747 -853 0
-747 -854 0
-748 -803 0
-748 -804 0
-748 -853 0
-748 -854 0
-749 -804 0
-749 -854 0
-800 -851 0
-800 -852 0
-801 -851 0
-801 -852 0
-801 -853 0
-802 -851 0
-802 -852 0
-802 -853 0
-802 -854 0
-803 -852 0
-803 -853 0
-803 -854 0
-804 -853 0
-804 -854 0
-692 -751 0
-692 -806 0
-692 -856 0
-693 -752 0
-693 -806 0
-693 -807 0
-693 -856 0
-693 -857 0
-694 -753 0
-694 -807 0
-694 -808 0
-694 -856 0
-694 -857 0
-694 -858 0
-695 -754 0
-695 -808 0
-695 -809 0
-695 -857 0
-695 -858 0
-695 -859 0
-696 -755 0
-696 -809 0
-696 -810 0
-696 -858 0
-696 -859 0
-697 -756 0
-697 -810 0
-697 -859 0
-751 -806 0
-751 -856 0
-752 -806 0
-752 -807 0
-752 -856 0
-752 -857 0
-753 -807 0
-753 -808 0
-753 -856 0
-753 -857 0
-753 -858 0
-754 -808 0
-754 -809 0
-754 -857 0
-754 -858 0
-754 -859 0
-755 -809 0
-755 -810 0
-755 -858 0
-755 -859 0
-756 -810 0
-756 -859 0
-806 -856 0
-806 -857 0
-807 -856 0
-807 -857 0
-807 -858 0
-808 -856 0
-808 -857 0
-808 -858 0
-808 -859 0
-809 -857 0
-809 -858 0
-809 -859 0
-810 -858 0
-810 -859 0
-892 -951 0
-892 -1009 0
-892 -1062 0
-893 -952 0
-893 -1009 0
-893 -1010 0
-893 -1062 0
-893 -1063 0
-894 -953 0
-894 -1010 0
-894 -1011 0
-894 -1062 0
-894 -1063 0
-894 -1064 0
-895 -954 0
-895 -1011 0
-895 -1012 0
-895 -1063 0
-895 -1064 0
-895 -1065 0
-896 -955 0
-896 -1012 0
-896 -1013 0
-896 -1064 0
-896 -1065 0
-897 -956 0
-897 -1013 0
-897 -1065 0
-951 -1009 0
-951 -1062 0
-952 -1009 0
-952 -1010 0
-952 -1062 0
-952 -1063 0
-953 -1010 0
-953 -1011 0
-953 -1062 0
-953 -1063 0
-953 -1064 0
-954 -1011 0
-954 -1012 0
-954 -1063 0
-954 -1064 0
-954 -1065 0
-955 -1012 0
-955 -1013 0
-955 -1064 0
-955 -1065 0
-956 -1013 0
-956 -1065 0
-1009 -1062 0
-1009 -1063 0
-1010 -1062 0
-1010 -1063 0
-1010 -1064 0
-1011 -1062 0
-1011 -1063 0
-1011 -1064 0
-1011 -1065 0
-1012 -1063 0
-1012 -1064 0
-1012 -1065 0
-1013 -1064 0
-1013 -1065 0
-899 -958 0
-899 -1015 0
-899 -1067 0
-900 -959 0
-900 -1015 0
-900 -1016 0
-900 -1067 0
-900 -1068 0
-901 -960 0
-901 -1016 0
-901 -1017 0
-901 -1067 0
-901 -1068 0
-901 -1069 0
-902 -961 0
-902 -1017 0
-902 -1018 0
-902 -1068 0
-902 -1069 0
-902 -1070 0
-903 -962 0
-903 -1018 0
-903 -1019 0
-903 -1069 0
-903 -1070 0
-904 -963 0
-904 -1019 0
-904 -1070 0
-958 -1015 0
-958 -1067 0
-959 -1015 0
-959 -1016 0
-959 -1067 0
-959 -1068 0
-960 -1016 0
-960 -1017 0
-960 -1067 0
-960 -1068 0
-960 -1069 0
-961 -1017 0
-961 -1018 0
-961 -1068 0
-961 -1069 0
-961 -1070 0
-962 -1018 0
-962 -1019 0
-962 -1069 0
-962 -1070 0
-963 -1019 0
-963 -1070 0
-1015 -1067 0
-1015 -1068 0
-1016 -1067 0
-1016 -1068 0
-1016 -1069 0
-1017 -1067 0
-1017 -1068 0
-1017 -1069 0
-1017 -1070 0
-1018 -1068 0
-1018 -1069 0
-1018 -1070 0
-1019 -1069 0
-1019 -1070 0
-906 -965 0
-906 -1021 0
-906 -1072 0
-907 -966 0
-907 -1021 0
-907 -1022 0
-907 -1072 0
-907 -1073 0
-908 -967 0
-908 -1022 0
-908 -1023 0
-908 -1072 0
-908 -1073 0
-908 -1074 0
-909 -968 0
-909 -1023 0
-909 -1024 0
-909 -1073 0
-909 -1074 0
-909 -1075 0
-910 -969 0
-910 -1024 0
-910 -1025 0
-910 -1074 0
-910 -1075 0
-911 -970 0
-911 -1025 0
-911 -1075 0
-965 -1021 0
-965 -1072 0
-966 -1021 0
-966 -1022 0
-966 -1072 0
-966 -1073 0
-967 -1022 0
-967 -1023 0
-967 -1072 0
-967 -1073 0
-967 -1074 0
-968 -1023 0
-968 -1024 0
-968 -1073 0
-968 -1074 0
-968 -1075 0
-969 -1024 0
-969 -1025 0
-969 -1074 0
-969 -1075 0
-970 -1025 0
-970 -1075 0
-1021 -1072 0
-1021 -1073 0
-1022 -1072 0
-1022 -1073 0
-1022 -1074 0
-1023 -1072 0
-1023 -1073 0
-1023 -1074 0
-1023 -1075 0
-1024 -1073 0
-1024 -1074 0
-1024 -1075 0
-1025 -1074 0
-1025 -1075 0
-913 -972 0
-913 -1027 0
-913 -1077 0
-914 -973 0
-914 -1027 0
-914 -1028 0
-914 -1077 0
-914 -1078 0
-915 -974 0
-915 -1028 0
-915 -1029 0
-915 -1077 0
-915 -1078 0
-915 -1079 0
-916 -975 0
-916 -1029 0
-916 -1030 0
-916 -1078 0
-916 -1079 0
-916 -1080 0
-917 -976 0
-917 -1030 0
-917 -1031 0
-917 -1079 0
-917 -1080 0
-918 -977 0
-918 -1031 0
-918 -1080 0
-972 -1027 0
-972 -1077 0
-973 -1027 0
-973 -1028 0
-973 -1077 0
-973 -1078 0
-974 -1028 0
-974 -1029 0
-974 -1077 0
-974 -1078 0
-974 -1079 0
-975 -1029 0
-975 -1030 0
-975 -1078 0
-975 -1079 0
-975 -1080 0
-976 -1030 0
-976 -1031 0
-976 -1079 0
-976 -1080 0
-977 -1031 0
-977 -1080 0
-1027 -1077 0
-1027 -1078 0
-1028 -1077 0
-1028 -1078 0
-1028 -1079 0
-1029 -1077 0
-1029 -1078 0
-1029 -1079 0
-1029 -1080 0
-1030 -1078 0
-1030 -1079 0
-1030 -1080 0
-1031 -1079 0
-1031 -1080 0
-1113 -1172 0
-1113 -1230 0
-1113 -1283 0
-1114 -1173 0
-1114 -1230 0
-1114 -1231 0
-1114 -1283 0
-1114 -1284 0
-1115 -1174 0
-1115 -1231 0
-1115 -1232 0
-1115 -1283 0
-1115 -1284 0
-1115 -1285 0
-1116 -1175 0
-1116 -1232 0
-1116 -1233 0
-1116 -1284 0
-1116 -1285 0
-1116 -1286 0
-1117 -1176 0
-1117 -1233 0
-1117 -1234 0
-1117 -1285 0
-1117 -1286 0
-1118 -1177 0
-1118 -1234 0
-1118 -1286 0
-1172 -1230 0
-1172 -1283 0
-1173 -1230 0
-1173 -1231 0
-1173 -1283 0
-1173 -1284 0
-1174 -1231 0
-1174 -1232 0
-1174 -1283 0
-1174 -1284 0
-1174 -1285 0
-1175 -1232 0
-1175 -1233 0
-1175 -1284 0
-1175 -1285 0
-1175 -1286 0
-1176 -1233 0
-1176 -1234 0
-1176 -1285 0
-1176 -1286 0
-1177 -1234 0
-1177 -1286 0
-1230 -1283 0
-1230 -1284 0
-1231 -1283 0
-1231 -1284 0
-1231 -1285 0
-1232 -1283 0
-1232 -1284 0
-1232 -1285 0
-1232 -1286 0
-1233 -1284 0
-1233 -1285 0
-1233 -1286 0
-1234 -1285 0
-1234 -1286 0
-1120 -1179 0
-1120 -1236 0
-1120 -1288 0
-1121 -1180 0
-1121 -1236 0
-1121 -1237 0
-1121 -1288 0
-1121 -1289 0
-1122 -1181 0
-1122 -1237 0
-1122 -1238 0
-1122 -1288 0
-1122 -1289 0
-1122 -1290 0
-1123 -1182 0
-1123 -1238 0
-1123 -1239 0
-1123 -1289 0
-1123 -1290 0
-1123 -1291 0
-1124 -1183 0
-1124 -1239 0
-1124 -1240 0
-1124 -1290 0
-1124 -1291 0
-1125 -1184 0
-1125 -1240 0
-1125 -1291 0
-1179 -1236 0
-1179 -1288 0
-1180 -1236 0
-1180 -1237 0
-1180 -1288 0
-1180 -1289 0
-1181 -1237 0
-1181 -1238 0
-1181 -1288 0
-1181 -1289 0
-1181 -1290 0
-1182 -1238 0
-1182 -1239 0
-1182 -1289 0
-1182 -1290 0
-1182 -1291 0
-1183 -1239 0
-1183 -1240 0
-1183 -1290 0
-1183 -1291 0
-1184 -1240 0
-1184 -1291 0
-1236 -1288 0
-1236 -1289 0
-1237 -1288 0
-1237 -1289 0
-1237 -1290 0
-1238 -1288 0
-1238 -1289 0
-1238 -1290 0
-1238 -1291 0
-1239 -1289 0
-1239 -1290 0
-1239 -1291 0
-1240 -1290 0
-1240 -1291 0
-1127 -1186 0
-1127 -1242 0
-1127 -1293 0
-1128 -1187 0
-1128 -1242 0
-1128 -1243 0
-1128 -1293 0
-1128 -1294 0
-1129 -1188 0
-1129 -1243 0
-1129 -1244 0
-1129 -1293 0
-1129 -1294 0
-1129 -1295 0
-1130 -1189 0
-1130 -1244 0
-1130 -1245 0
-1130 -1294 0
-1130 -1295 0
-1130 -1296 0
-1131 -1190 0
-1131 -1245 0
-1131 -1246 0
-1131 -1295 0
-1131 -1296 0
-1132 -1191 0
-1132 -1246 0
-1132 -1296 0
-1186 -1242 0
-1186 -1293 0
-1187 -1242 0
-1187 -1243 0
-1187 -1293 0
-1187 -1294 0
-1188 -1243 0
-1188 -1244 0
-1188 -1293 0
-1188 -1294 0
-1188 -1295 0
-1189 -1244 0
-1189 -1245 0
-1189 -1294 0
-1189 -1295 0
-1189 -1296 0
-1190 -1245 0
-1190 -1246 0
-1190 -1295 0
-1190 -1296 0
-1191 -1246 0
-1191 -1296 0
-1242 -1293 0
-1242 -1294 0
-1243 -1293 0
-1243 -1294 0
-1243 -1295 0
-1244 -1293 0
-1244 -1294 0
-1244 -1295 0
-1244 -1296 0
-1245 -1294 0
-1245 -1295 0
-1245 -1296 0
-1246 -1295 0
-1246 -1296 0
-1134 -1193 0
-1134 -1248 0
-1134 -1298 0
-1135 -1194 0
-1135 -1248 0
-1135 -1249 0
-1135 -1298 0
-1135 -1299 0
-1136 -1195 0
-1136 -1249 0
-1136 -1250 0
-1136 -1298 0
-1136 -1299 0
-1136 -1300 0
-1137 -1196 0
-1137 -1250 0
-1137 -1251 0
-1137 -1299 0
-1137 -1300 0
-1137 -1301 0
-1138 -1197 0
-1138 -1251 0
-1138 -1252 0
-1138 -1300 0
-1138 -1301 0
-1139 -1198 0
-1139 -1252 0
-1139 -1301 0
-1193 -1248 0
-1193 -1298 0
-1194 -1248 0
-1194 -1249 0
-1194 -1298 0
-1194 -1299 0
-1195 -1249 0
-1195 -1250 0
-1195 -1298 0
-1195 -1299 0
-1195 -1300 0
-1196 -1250 0
-1196 -1251 0
-1196 -1299 0
-1196 -1300 0
-1196 -1301 0
-1197 -1251 0
-1197 -1252 0
-1197 -1300 0
-1197 -1301 0
-1198 -1252 0
-1198 -1301 0
-1248 -1298 0
-1248 -1299 0
-1249 -1298 0
-1249 -1299 0
-1249 -1300 0
-1250 -1298 0
-1250 -1299 0
-1250 -1300 0
-1250 -1301 0
-1251 -1299 0
-1251 -1300 0
-1251 -1301 0
-1252 -1300 0
-1252 -1301 0
-1334 -1393 0
-1334 -1451 0
-1334 -1504 0
-1335 -1394 0
-1335 -1451 0
-1335 -1452 0
-1335 -1504 0
-1335 -1505 0
-1336 -1395 0
-1336 -1452 0
-1336 -1453 0
-1336 -1504 0
-1336 -1505 0
-1336 -1506 0
-1337 -1396 0
-1337 -1453 0
-1337 -1454 0
-1337 -1505 0
-1337 -1506 0
-1337 -1507 0
-1338 -1397 0
-1338 -1454 0
-1338 -1455 0
-1338 -1506 0
-1338 -1507 0
-1339 -1398 0
-1339 -1455 0
-1339 -1507 0
-1393 -1451 0
-1393 -1504 0
-1394 -1451 0
-1394 -1452 0
-1394 -1504 0
-1394 -1505 0
-1395 -1452 0
-1395 -1453 0
-1395 -1504 0
-1395 -1505 0
-1395 -1506 0
-1396 -1453 0
-1396 -1454 0
-1396 -1505 0
-1396 -1506 0
-1396 -1507 0
-1397 -1454 0
-1397 -1455 0
-1397 -1506 0
-1397 -1507 0
-1398 -1455 0
-1398 -1507 0
-1451 -1504 0
-1451 -1505 0
-1452 -1504 0
-1452 -1505 0
-1452 -1506 0
-1453 -1504 0
-1453 -1505 0
-1453 -1506 0
-1453 -1507 0
-1454 -1505 0
-1454 -1506 0
-1454 -1507 0
-1455 -1506 0
-1455 -1507 0
-1341 -1400 0
-1341 -1457 0
-1341 -1509 0
-1342 -1401 0
-1342 -1457 0
-1342 -1458 0
-1342 -1509 0
-1342 -1510 0
-1343 -1402 0
-1343 -1458 0
-1343 -1459 0
-1343 -1509 0
-1343 -1510 0
-1343 -1511 0
-1344 -1403 0
-1344 -1459 0
-1344 -1460 0
-1344 -1510 0
-1344 -1511 0
-1344 -1512 0
-1345 -1404 0
-1345 -1460 0
-1345 -1461 0
-1345 -1511 0
-1345 -1512 0
-1346 -1405 0
-1346 -1461 0
-1346 -1512 0
-1400 -1457 0
-1400 -1509 0
-1401 -1457 0
-1401 -1458 0
-1401 -1509 0
-1401 -1510 0
-1402 -1458 0
-1402 -1459 0
-1402 -1509 0
-1402 -1510 0
-1402 -1511 0
-1403 -1459 0
-1403 -1460 0
-1403 -1510 0
-1403 -1511 0
-1403 -1512 0
-1404 -1460 0
-1404 -1461 0
-1404 -1511 0
-1404 -1512 0
-1405 -1461 0
-1405 -1512 0
-1457 -1509 0
-1457 -1510 0
-1458 -1509 0
-1458 -1510 0
-1458 -1511 0
-1459 -1509 0
-1459 -1510 0
-1459 -1511 0
-1459 -1512 0
-1460 -1510 0
-1460 -1511 0
-1460 -1512 0
-1461 -1511 0
-1461 -1512 0
-1348 -1407 0
-1348 -1463 0
-1348 -1514 0
-1349 -1408 0
-1349 -1463 0
-1349 -1464 0
-1349 -1514 0
-1349 -1515 0
-1350 -1409 0
-1350 -1464 0
-1350 -1465 0
-1350 -1514 0
-1350 -1515 0
-1350 -1516 0
-1351 -1410 0
-1351 -1465 0
-1351 -1466 0
-1351 -1515 0
-1351 -1516 0
-1351 -1517 0
-1352 -1411 0
-1352 -1466 0
-1352 -1467 0
-1352 -1516 0
-1352 -1517 0
-1353 -1412 0
-1353 -1467 0
-1353 -1517 0
-1407 -1463 0
-1407 -1514 0
-1408 -1463 0
-1408 -1464 0
-1408 -1514 0
-1408 -1515 0
-1409 -1464 0
-1409 -1465 0
-1409 -1514 0
-1409 -1515 0
-1409 -1516 0
-1410 -1465 0
-1410 -1466 0
-1410 -1515 0
-1410 -1516 0
-1410 -1517 0
-1411 -1466 0
-1411 -1467 0
-1411 -1516 0
-1411 -1517 0
-1412 -1467 0
-1412 -1517 0
-1463 -1514 0
-1463 -1515 0
-1464 -1514 0
-1464 -1515 0
-1464 -1516 0
-1465 -1514 0
-1465 -1515 0
-1465 -1516 0
-1465 -1517 0
-1466 -1515 0
-1466 -1516 0
-1466 -1517 0
-1467 -1516 0
-1467 -1517 0
-1355 -1414 0
-1355 -1469 0
-1355 -1519 0
-1356 -1415 0
-1356 -1469 0
-1356 -1470 0
-1356 -1519 0
-1356 -1520 0
-1357 -1416 0
-1357 -1470 0
-1357 -1471 0
-1357 -1519 0
-1357 -1520 0
-1357 -1521 0
-1358 -1417 0
-1358 -1471 0
-1358 -1472 0
-1358 -1520 0
-1358 -1521 0
-1358 -1522 0
-1359 -1418 0
-1359 -1472 0
-1359 -1473 0
-1359 -1521 0
-1359 -1522 0
-1360 -1419 0
-1360 -1473 0
-1360 -1522 0
-1414 -1469 0
-1414 -1519 0
-1415 -1469 0
-1415 -1470 0
-1415 -1519 0
-1415 -1520 0
-1416 -1470 0
-1416 -1471 0
-1416 -1519 0
-1416 -1520 0
-1416 -1521 0
-1417 -1471 0
-1417 -1472 0
-1417 -1520 0
-1417 -1521 0
-1417 -1522 0
-1418 -1472 0
-1418 -1473 0
-1418 -1521 0
-1418 -1522 0
-1419 -1473 0
-1419 -1522 0
-1469 -1519 0
-1469 -1520 0
-1470 -1519 0
-1470 -1520 0
-1470 -1521 0
-1471 -1519 0
-1471 -1520 0
-1471 -1521 0
-1471 -1522 0
-1472 -1520 0
-1472 -1521 0
-1472 -1522 0
-1473 -1521 0
-1473 -1522 0
-15 197 0
-22 203 0
-29 209 0
-16 198 0
-23 204 0
-30 210 0
-17 199 0
-24 205 0
-31 211 0
-18 200 0
-25 206 0
-32 212 0
-19 201 0
-26 207 0
-33 213 0
-20 202 0
-27 208 0
-34 214 0
-74 197 0
-81 203 0
-88 209 0
-75 198 0
-82 204 0
-89 210 0
-76 199 0
-83 205 0
-90 211 0
-77 200 0
-84 206 0
-91 212 0
-78 201 0
-85 207 0
-92 213 0
-79 202 0
-86 208 0
-93 214 0
-131 197 198 0
-137 203 204 0
-143 209 210 0
-132 198 199 0
-138 204 205 0
-144 210 211 0
-133 199 200 0
-139 205 206 0
-145 211 212 0
-134 200 201 0
-140 206 207 0
-146 212 213 0
-135 201 202 0
-141 207 208 0
-147 213 214 0
-183 197 198 0
-183 197 199 0
-183 198 199 0
-188 203 204 0
-188 203 205 0
-188 204 205 0
-193 209 210 0
-193 209 211 0
-193 210 211 0
-184 198 199 0
-184 198 200 0
-184 199 200 0
-189 204 205 0
-189 204 206 0
-189 205 206 0
-194 210 211 0
-194 210 212 0
-194 211 212 0
-185 199 200 0
-185 199 201 0
-185 200 201 0
-190 205 206 0
-190 205 207 0
-190 206 207 0
-195 211 212 0
-195 211 213 0
-195 212 213 0
-186 200 201 0
-186 200 202 0
-186 201 202 0
-191 206 207 0
-191 206 208 0
-191 207 208 0
-196 212 213 0
-196 212 214 0
-196 213 214 0
-236 418 0
-243 424 0
-250 430 0
-237 419 0
-244 425 0
-251 431 0
-238 420 0
-245 426 0
-252 432 0
-239 421 0
-246 427 0
-253 433 0
-240 422 0
-247 428 0
-254 434 0
-241 423 0
-248 429 0
-255 435 0
-295 418 0
-302 424 0
-309 430 0
-296 419 0
-303 425 0
-310 431 0
-297 420 0
-304 426 0
-311 432 0
-298 421 0
-305 427 0
-312 433 0
-299 422 0
-306 428 0
-313 434 0
-300 423 0
-307 429 0
-314 435 0
-352 418 419 0
-358 424 425 0
-364 430 431 0
-353 419 420 0
-359 425 426 0
-365 431 432 0
-354 420 421 0
-360 426 427 0
-366 432 433 0
-355 421 422 0
-361 427 428 0
-367 433 434 0
-356 422 423 0
-362 428 429 0
-368 434 435 0
-404 418 419 0
-404 418 420 0
-404 419 420 0
-409 424 425 0
-409 424 426 0
-409 425 426 0
-414 430 431 0
-414 430 432 0
-414 431 432 0
-405 419 420 0
-405 419 421 0
-405 420 421 0
-410 425 426 0
-410 425 427 0
-410 426 427 0
-415 431 432 0
-415 431 433 0
-415 432 433 0
-406 420 421 0
-406 420 422 0
-406 421 422 0
-411 426 427 0
-411 426 428 0
-411 427 428 0
-416 432 433 0
-416 432 434 0
-416 433 434 0
-407 421 422 0
-407 421 423 0
-407 422 423 0
-412 427 428 0
-412 427 429 0
-412 428 429 0
-417 433 434 0
-417 433 435 0
-417 434 435 0
-457 639 0
-464 645 0
-471 651 0
-458 640 0
-465 646 0
-472 652 0
-459 641 0
-466 647 0
-473 653 0
-460 642 0
-467 648 0
-474 654 0
-461 643 0
-468 649 0
-475 655 0
-462 644 0
-469 650 0
-476 656 0
-516 639 0
-523 645 0
-530 651 0
-517 640 0
-524 646 0
-531 652 0
-518 641 0
-525 647 0
-532 653 0
-519 642 0
-526 648 0
-533 654 0
-520 643 0
-527 649 0
-534 655 0
-521 644 0
-528 650 0
-535 656 0
-573 639 640 0
-579 645 646 0
-585 651 652 0
-574 640 641 0
-580 646 647 0
-586 652 653 0
-575 641 642 0
-581 647 648 0
-587 653 654 0
-576 642 643 0
-582 648 649 0
-588 654 655 0
-577 643 644 0
-583 649 650 0
-589 655 656 0
-625 639 640 0
-625 639 641 0
-625 640 641 0
-630 645 646 0
-630 645 647 0
-630 646 647 0
-635 651 652 0
-635 651 653 0
-635 652 653 0
-626 640 641 0
-626 640 642 0
-626 641 642 0
-631 646 647 0
-631 646 648 0
-631 647 648 0
-636 652 653 0
-636 652 654 0
-636 653 654 0
-627 641 642 0
-627 641 643 0
-627 642 643 0
-632 647 648 0
-632 647 649 0
-632 648 649 0
-637 653 654 0
-637 653 655 0
-637 654 655 0
-628 642 643 0
-628 642 644 0
-628 643 644 0
-633 648 649 0
-633 648 650 0
-633 649 650 0
-638 654 655 0
-638 654 656 0
-638 655 656 0
-678 860 0
-685 866 0
-692 872 0
-679 861 0
-686 867 0
-693 873 0
-680 862 0
-687 868 0
-694 874 0
-681 863 0
-688 869 0
-695 875 0
-682 864 0
-689 870 0
-696 876 0
-683 865 0
-690 871 0
-697 877 0
-737 860 0
-744 866 0
-751 872 0
-738 861 0
-745 867 0
-752 873 0
-739 862 0
-746 868 0
-753 874 0
-740 863 0
-747 869 0
-754 875 0
-741 864 0
-748 870 0
-755 876 0
-742 865 0
-749 871 0
-756 877 0
-794 860 861 0
-800 866 867 0
-806 872 873 0
-795 861 862 0
-801 867 868 0
-807 873 874 0
-796 862 863 0
-802 868 869 0
-808 874 875 0
-797 863 864 0
-803 869 870 0
-809 875 876 0
-798 864 865 0
-804 870 871 0
-810 876 877 0
-846 860 861 0
-846 860 862 0
-846 861 862 0
-851 866 867 0
-851 866 868 0
-851 867 868 0
-856 872 873 0
-856 872 874 0
-856 873 874 0
-847 861 862 0
-847 861 863 0
-847 862 863 0
-852 867 868 0
-852 867 869 0
-852 868 869 0
-857 873 874 0
-857 873 875 0
-857 874 875 0
-848 862 863 0
-848 862 864 0
-848 863 864 0
-853 868 869 0
-853 868 870 0
-853 869 870 0
-858 874 875 0
-858 874 876 0
-858 875 876 0
-849 863 864 0
-849 863 865 0
-849 864 865 0
-854 869 870 0
-854 869 871 0
-854 870 871 0
-859 875 876 0
-859 875 877 0
-859 876 877 0
-899 1081 0
-906 1087 0
-913 1093 0
-900 1082 0
-907 1088 0
-914 1094 0
-901 1083 0
-908 1089 0
-915 1095 0
-902 1084 0
-909 1090 0
-916 1096 0
-903 1085 0
-910 1091 0
-917 1097 0
-904 1086 0
-911 1092 0
-918 1098 0
-958 1081 0
-965 1087 0
-972 1093 0
-959 1082 0
-966 1088 0
-973 1094 0
-960 1083 0
-967 1089 0
-974 1095 0
-961 1084 0
-968 1090 0
-975 1096 0
-962 1085 0
-969 1091 0
-976 1097 0
-963 1086 0
-970 1092 0
-977 1098 0
-1015 1081 1082 0
-1021 1087 1088 0
-1027 1093 1094 0
-1016 1082 1083 0
-1022 1088 1089 0
-1028 1094 1095 0
-1017 1083 1084 0
-1023 1089 1090 0
-1029 1095 1096 0
-1018 1084 1085 0
-1024 1090 1091 0
-1030 1096 1097 0
-1019 1085 1086 0
-1025 1091 1092 0
-1031 1097 1098 0
-1067 1081 1082 0
-1067 1081 1083 0
-1067 1082 1083 0
-1072 1087 1088 0
-1072 1087 1089 0
-1072 1088 1089 0
-1077 1093 1094 0
-1077 1093 1095 0
-1077 1094 1095 0
-1068 1082 1083 0
-1068 1082 1084 0
-1068 1083 1084 0
-1073 1088 1089 0
-1073 1088 1090 0
-1073 1089 1090 0
-1078 1094 1095 0
-1078 1094 1096 0
-1078 1095 1096 0
-1069 1083 1084 0
-1069 1083 1085 0
-1069 1084 1085 0
-1074 1089 1090 0
-1074 1089 1091 0
-1074 1090 1091 0
-1079 1095 1096 0
-1079 1095 1097 0
-1079 1096 1097 0
-1070 1084 1085 0
-1070 1084 1086 0
-1070 1085 1086 0
-1075 1090 1091 0
-1075 1090 1092 0
-1075 1091 1092 0
-1080 1096 1097 0
-1080 1096 1098 0
-1080 1097 1098 0
-1120 1302 0
-1127 1308 0
-1134 1314 0
-1121 1303 0
-1128 1309 0
-1135 1315 0
-1122 1304 0
-1129 1310 0
-1136 1316 0
-1123 1305 0
-1130 1311 0
-1137 1317 0
-1124 1306 0
-1131 1312 0
-1138 1318 0
-1125 1307 0
-1132 1313 0
-1139 1319 0
-1179 1302 0
-1186 1308 0
-1193 1314 0
-1180 1303 0
-1187 1309 0
-1194 1315 0
-1181 1304 0
-1188 1310 0
-1195 1316 0
-1182 1305 0
-1189 1311 0
-1196 1317 0
-1183 1306 0
-1190 1312 0
-1197 1318 0
-1184 1307 0
-1191 1313 0
-1198 1319 0
-1236 1302 1303 0
-1242 1308 1309 0
-1248 1314 1315 0
-1237 1303 1304 0
-1243 1309 1310 0
-1249 1315 1316 0
-1238 1304 1305 0
-1244 1310 1311 0
-1250 1316 1317 0
-1239 1305 1306 0
-1245 1311 1312 0
-1251 1317 1318 0
-1240 1306 1307 0
-1246 1312 1313 0
-1252 1318 1319 0
-1288 1302 1303 0
-1288 1302 1304 0
-1288 1303 1304 0
-1293 1308 1309 0
-1293 1308 1310 0
-1293 1309 1310 0
-1298 1314 1315 0
-1298 1314 1316 0
-1298 1315 1316 0
-1289 1303 1304 0
-1289 1303 1305 0
-1289 1304 1305 0
-1294 1309 1310 0
-1294 1309 1311 0
-1294 1310 1311 0
-1299 1315 1316 0
-1299 1315 1317 0
-1299 1316 1317 0
-1290 1304 1305 0
-1290 1304 1306 0
-1290 1305 1306 0
-1295 1310 1311 0
-1295 1310 1312 0
-1295 1311 1312 0
-1300 1316 1317 0
-1300 1316 1318 0
-1300 1317 1318 0
-1291 1305 1306 0
-1291 1305 1307 0
-1291 1306 1307 0
-1296 1311 1312 0
-1296 1311 1313 0
-1296 1312 1313 0
-1301 1317 1318 0
-1301 1317 1319 0
-1301 1318 1319 0
-1341 1523 0
-1348 1529 0
-1355 1535 0
-1342 1524 0
-1349 1530 0
-1356 1536 0
-1343 1525 0
-1350 1531 0
-1357 1537 0
-1344 1526 0
-1351 1532 0
-1358 1538 0
-1345 1527 0
-1352 1533 0
-1359 1539 0
-1346 1528 0
-1353 1534 0
-1360 1540 0
-1400 1523 0
-1407 1529 0
-1414 1535 0
-1401 1524 0
-1408 1530 0
-1415 1536 0
-1402 1525 0
-1409 1531 0
-1416 1537 0
-1403 1526 0
-1410 1532 0
-1417 1538 0
-1404 1527 0
-1411 1533 0
-1418 1539 0
-1405 1528 0
-1412 1534 0
-1419 1540 0
-1457 1523 1524 0
-1463 1529 1530 0
-1469 1535 1536 0
-1458 1524 1525 0
-1464 1530 1531 0
-1470 1536 1537 0
-1459 1525 1526 0
-1465 1531 1532 0
-1471 1537 1538 0
-1460 1526 1527 0
-1466 1532 1533 0
-1472 1538 1539 0
-1461 1527 1528 0
-1467 1533 1534 0
-1473 1539 1540 0
-1509 1523 1524 0
-1509 1523 1525 0
-1509 1524 1525 0
-1514 1529 1530 0
-1514 1529 1531 0
-1514 1530 1531 0
-1519 1535 1536 0
-1519 1535 1537 0
-1519 1536 1537 0
-1510 1524 1525 0
-1510 1524 1526 0
-1510 1525 1526 0
-1515 1530 1531 0
-1515 1530 1532 0
-1515 1531 1532 0
-1520 1536 1537 0
-1520 1536 1538 0
-1520 1537 1538 0
-1511 1525 1526 0
-1511 1525 1527 0
-1511 1526 1527 0
-1516 1531 1532 0
-1516 1531 1533 0
-1516 1532 1533 0
-1521 1537 1538 0
-1521 1537 1539 0
-1521 1538 1539 0
-1512 1526 1527 0
-1512 1526 1528 0
-1512 1527 1528 0
-1517 1532 1533 0
-1517 1532 1534 0
-1517 1533 1534 0
-1522 1538 1539 0
-1522 1538 1540 0
-1522 1539 1540 0
-8 -74 -59 0
-8 -81 -59 0
-8 -88 -59 0
-8 -131 -59 0
-8 -137 -59 0
-8 -143 -59 0
-8 -183 -59 0
-8 -188 -59 0
-8 -193 -59 0
-8 74 81 88 131 137 143 183 188 193 59 0
-15 -81 -59 0
-15 -88 -59 0
-15 -137 -59 0
-15 -143 -59 0
-15 -188 -59 0
-15 -193 -59 0
-15 81 88 137 143 188 193 59 0
-22 -88 -59 0
-22 -143 -59 0
-22 -193 -59 0
-22 88 143 193 59 0
-29 59 0
-9 -75 -59 0
-9 -82 -59 0
-9 -89 -59 0
-9 -131 -59 0
-9 -137 -59 0
-9 -143 -59 0
-9 -132 -59 0
-9 -138 -59 0
-9 -144 -59 0
-9 -183 -59 0
-9 -188 -59 0
-9 -193 -59 0
-9 -184 -59 0
-9 -189 -59 0
-9 -194 -59 0
-9 75 82 89 131 137 143 132 138 144 183 188 193 184 189 194 59 0
-16 -82 -59 0
-16 -89 -59 0
-16 -137 -59 0
-16 -143 -59 0
-16 -138 -59 0
-16 -144 -59 0
-16 -188 -59 0
-16 -193 -59 0
-16 -189 -59 0
-16 -194 -59 0
-16 82 89 137 143 138 144 188 193 189 194 59 0
-23 -89 -59 0
-23 -143 -59 0
-23 -144 -59 0
-23 -193 -59 0
-23 -194 -59 0
-23 89 143 144 193 194 59 0
-30 59 0
-10 -76 -59 0
-10 -83 -59 0
-10 -90 -59 0
-10 -132 -59 0
-10 -138 -59 0
-10 -144 -59 0
-10 -133 -59 0
-10 -139 -59 0
-10 -145 -59 0
-10 -183 -59 0
-10 -188 -59 0
-10 -193 -59 0
-10 -184 -59 0
-10 -189 -59 0
-10 -194 -59 0
-10 -185 -59 0
-10 -190 -59 0
-10 -195 -59 0
-10 76 83 90 132 138 144 133 139 145 183 188 193 184 189 194 185 190 195 59 0
-17 -83 -59 0
-17 -90 -59 0
-17 -138 -59 0
-17 -144 -59 0
-17 -139 -59 0
-17 -145 -59 0
-17 -188 -59 0
-17 -193 -59 0
-17 -189 -59 0
-17 -194 -59 0
-17 -190 -59 0
-17 -195 -59 0
-17 83 90 138 144 139 145 188 193 189 194 190 195 59 0
-24 -90 -59 0
-24 -144 -59 0
-24 -145 -59 0
-24 -193 -59 0
-24 -194 -59 0
-24 -195 -59 0
-24 90 144 145 193 194 195 59 0
-31 59 0
-11 -77 -59 0
-11 -84 -59 0
-11 -91 -59 0
-11 -133 -59 0
-11 -139 -59 0
-11 -145 -59 0
-11 -134 -59 0
-11 -140 -59 0
-11 -146 -59 0
-11 -184 -59 0
-11 -189 -59 0
-11 -194 -59 0
-11 -185 -59 0
-11 -190 -59 0
-11 -195 -59 0
-11 -186 -59 0
-11 -191 -59 0
-11 -196 -59 0
-11 77 84 91 133 139 145 134 140 146 184 189 194 185 190 195 186 191 196 59 0
-18 -84 -59 0
-18 -91 -59 0
-18 -139 -59 0
-18 -145 -59 0
-18 -140 -59 0
-18 -146 -59 0
-18 -189 -59 0
-18 -194 -59 0
-18 -190 -59 0
-18 -195 -59 0
-18 -191 -59 0
-18 -196 -59 0
-18 84 91 139 145 140 146 189 194 190 195 191 196 59 0
-25 -91 -59 0
-25 -145 -59 0
-25 -146 -59 0
-25 -194 -59 0
-25 -195 -59 0
-25 -196 -59 0
-25 91 145 146 194 195 196 59 0
-32 59 0
-12 -78 -59 0
-12 -85 -59 0
-12 -92 -59 0
-12 -134 -59 0
-12 -140 -59 0
-12 -146 -59 0
-12 -135 -59 0
-12 -141 -59 0
-12 -147 -59 0
-12 -185 -59 0
-12 -190 -59 0
-12 -195 -59 0
-12 -186 -59 0
-12 -191 -59 0
-12 -196 -59 0
-12 78 85 92 134 140 146 135 141 147 185 190 195 186 191 196 59 0
-19 -85 -59 0
-19 -92 -59 0
-19 -140 -59 0
-19 -146 -59 0
-19 -141 -59 0
-19 -147 -59 0
-19 -190 -59 0
-19 -195 -59 0
-19 -191 -59 0
-19 -196 -59 0
-19 85 92 140 146 141 147 190 195 191 196 59 0
-26 -92 -59 0
-26 -146 -59 0
-26 -147 -59 0
-26 -195 -59 0
-26 -196 -59 0
-26 92 146 147 195 196 59 0
-33 59 0
-13 -79 -59 0
-13 -86 -59 0
-13 -93 -59 0
-13 -135 -59 0
-13 -141 -59 0
-13 -147 -59 0
-13 -186 -59 0
-13 -191 -59 0
-13 -196 -59 0
-13 79 86 93 135 141 147 186 191 196 59 0
-20 -86 -59 0
-20 -93 -59 0
-20 -141 -59 0
-20 -147 -59 0
-20 -191 -59 0
-20 -196 -59 0
-20 86 93 141 147 191 196 59 0
-27 -93 -59 0
-27 -147 -59 0
-27 -196 -59 0
-27 93 147 196 59 0
-34 59 0
-67 -15 -118 0
-67 -22 -118 0
-67 -29 -118 0
-67 -131 -118 0
-67 -137 -118 0
-67 -143 -118 0
-67 -183 -118 0
-67 -188 -118 0
-67 -193 -118 0
-67 15 22 29 131 137 143 183 188 193 118 0
-74 -22 -118 0
-74 -29 -118 0
-74 -137 -118 0
-74 -143 -118 0
-74 -188 -118 0
-74 -193 -118 0
-74 22 29 137 143 188 193 118 0
-81 -29 -118 0
-81 -143 -118 0
-81 -193 -118 0
-81 29 143 193 118 0
-88 118 0
-68 -16 -118 0
-68 -23 -118 0
-68 -30 -118 0
-68 -131 -118 0
-68 -137 -118 0
-68 -143 -118 0
-68 -132 -118 0
-68 -138 -118 0
-68 -144 -118 0
-68 -183 -118 0
-68 -188 -118 0
-68 -193 -118 0
-68 -184 -118 0
-68 -189 -118 0
-68 -194 -118 0
-68 16 23 30 131 137 143 132 138 144 183 188 193 184 189 194 118 0
-75 -23 -118 0
-75 -30 -118 0
-75 -137 -118 0
-75 -143 -118 0
-75 -138 -118 0
-75 -144 -118 0
-75 -188 -118 0
-75 -193 -118 0
-75 -189 -118 0
-75 -194 -118 0
-75 23 30 137 143 138 144 188 193 189 194 118 0
-82 -30 -118 0
-82 -143 -118 0
-82 -144 -118 0
-82 -193 -118 0
-82 -194 -118 0
-82 30 143 144 193 194 118 0
-89 118 0
-69 -17 -118 0
-69 -24 -118 0
-69 -31 -118 0
-69 -132 -118 0
-69 -138 -118 0
-69 -144 -118 0
-69 -133 -118 0
-69 -139 -118 0
-69 -145 -118 0
-69 -183 -118 0
-69 -188 -118 0
-69 -193 -118 0
-69 -184 -118 0
-69 -189 -118 0
-69 -194 -118 0
-69 -185 -118 0
-69 -190 -118 0
-69 -195 -118 0
-69 17 24 31 132 138 144 133 139 145 183 188 193 184 189 194 185 190 195 118 0
-76 -24 -118 0
-76 -31 -118 0
-76 -138 -118 0
-76 -144 -118 0
-76 -139 -118 0
-76 -145 -118 0
-76 -188 -118 0
-76 -193 -118 0
-76 -189 -118 0
-76 -194 -118 0
-76 -190 -118 0
-76 -195 -118 0
-76 24 31 138 144 139 145 188 193 189 194 190 195 118 0
-83 -31 -118 0
-83 -144 -118 0
-83 -145 -118 0
-83 -193 -118 0
-83 -194 -118 0
-83 -195 -118 0
-83 31 144 145 193 194 195 118 0
-90 118 0
-70 -18 -118 0
-70 -25 -118 0
-70 -32 -118 0
-70 -133 -118 0
-70 -139 -118 0
-70 -145 -118 0
-70 -134 -118 0
-70 -140 -118 0
-70 -146 -118 0
-70 -184 -118 0
-70 -189 -118 0
-70 -194 -118 0
-70 -185 -118 0
-70 -190 -118 0
-70 -195 -118 0
-70 -186 -118 0
-70 -191 -118 0
-70 -196 -118 0
-70 18 25 32 133 139 145 134 140 146 184 189 194 185 190 195 186 191 196 118 0
-77 -25 -118 0
-77 -32 -118 0
-77 -139 -118 0
-77 -145 -118 0
-77 -140 -118 0
-77 -146 -118 0
-77 -189 -118 0
-77 -194 -118 0
-77 -190 -118 0
-77 -195 -118 0
-77 -191 -118 0
-77 -196 -118 0
-77 25 32 139 145 140 146 189 194 190 195 191 196 118 0
-84 -32 -118 0
-84 -145 -118 0
-84 -146 -118 0
-84 -194 -118 0
-84 -195 -118 0
-84 -196 -118 0
-84 32 145 146 194 195 196 118 0
-91 118 0
-71 -19 -118 0
-71 -26 -118 0
-71 -33 -118 0
-71 -134 -118 0
-71 -140 -118 0
-71 -146 -118 0
-71 -135 -118 0
-71 -141 -118 0
-71 -147 -118 0
-71 -185 -118 0
-71 -190 -118 0
-71 -195 -118 0
-71 -186 -118 0
-71 -191 -118 0
-71 -196 -118 0
-71 19 26 33 134 140 146 135 141 147 185 190 195 186 191 196 118 0
-78 -26 -118 0
-78 -33 -118 0
-78 -140 -118 0
-78 -146 -118 0
-78 -141 -118 0
-78 -147 -118 0
-78 -190 -118 0
-78 -195 -118 0
-78 -191 -118 0
-78 -196 -118 0
-78 26 33 140 146 141 147 190 195 191 196 118 0
-85 -33 -118 0
-85 -146 -118 0
-85 -147 -118 0
-85 -195 -118 0
-85 -196 -118 0
-85 33 146 147 195 196 118 0
-92 118 0
-72 -20 -118 0
-72 -27 -118 0
-72 -34 -118 0
-72 -135 -118 0
-72 -141 -118 0
-72 -147 -118 0
-72 -186 -118 0
-72 -191 -118 0
-72 -196 -118 0
-72 20 27 34 135 141 147 186 191 196 118 0
-79 -27 -118 0
-79 -34 -118 0
-79 -141 -118 0
-79 -147 -118 0
-79 -191 -118 0
-79 -196 -118 0
-79 27 34 141 147 191 196 118 0
-86 -34 -118 0
-86 -147 -118 0
-86 -196 -118 0
-86 34 147 196 118 0
-93 118 0
-125 -15 -172 0
-125 -22 -172 0
-125 -29 -172 0
-125 -16 -172 0
-125 -23 -172 0
-125 -30 -172 0
-125 -74 -172 0
-125 -81 -172 0
-125 -88 -172 0
-125 -75 -172 0
-125 -82 -172 0
-125 -89 -172 0
-125 -183 -172 0
-125 -188 -172 0
-125 -193 -172 0
-125 -184 -172 0
-125 -189 -172 0
-125 -194 -172 0
-125 15 22 29 16 23 30 74 81 88 75 82 89 183 188 193 184 189 194 172 0
-131 -22 -172 0
-131 -29 -172 0
-131 -23 -172 0
-131 -30 -172 0
-131 -81 -172 0
-131 -88 -172 0
-131 -82 -172 0
-131 -89 -172 0
-131 -188 -172 0
-131 -193 -172 0
-131 -189 -172 0
-131 -194 -172 0
-131 22 29 23 30 81 88 82 89 188 193 189 194 172 0
-137 -29 -172 0
-137 -30 -172 0
-137 -88 -172 0
-137 -89 -172 0
-137 -193 -172 0
-137 -194 -172 0
-137 29 30 88 89 193 194 172 0
-143 172 0
-126 -16 -172 0
-126 -23 -172 0
-126 -30 -172 0
-126 -17 -172 0
-126 -24 -172 0
-126 -31 -172 0
-126 -75 -172 0
-126 -82 -172 0
-126 -89 -172 0
-126 -76 -172 0
-126 -83 -172 0
-126 -90 -172 0
-126 -183 -172 0
-126 -188 -172 0
-126 -193 -172 0
-126 -184 -172 0
-126 -189 -172 0
-126 -194 -172 0
-126 -185 -172 0
-126 -190 -172 0
-126 -195 -172 0
-126 16 23 30 17 24 31 75 82 89 76 83 90 183 188 193 184 189 194 185 190 195 172 0
-132 -23 -172 0
-132 -30 -172 0
-132 -24 -172 0
-132 -31 -172 0
-132 -82 -172 0
-132 -89 -172 0
-132 -83 -172 0
-132 -90 -172 0
-132 -188 -172 0
-132 -193 -172 0
-132 -189 -172 0
-132 -194 -172 0
-132 -190 -172 0
-132 -195 -172 0
-132 23 30 24 31 82 89 83 90 188 193 189 194 190 195 172 0
-138 -30 -172 0
-138 -31 -172 0
-138 -89 -172 0
-138 -90 -172 0
-138 -193 -172 0
-138 -194 -172 0
-138 -195 -172 0
-138 30 31 89 90 193 194 195 172 0
-144 172 0
-127 -17 -172 0
-127 -24 -172 0
-127 -31 -172 0
-127 -18 -172 0
-127 -25 -172 0
-127 -32 -172 0
-127 -76 -172 0
-127 -83 -172 0
-127 -90 -172 0
-127 -77 -172 0
-127 -84 -172 0
-127 -91 -172 0
-127 -183 -172 0
-127 -188 -172 0
-127 -193 -172 0
-127 -184 -172 0
-127 -189 -172 0
-127 -194 -172 0
-127 -185 -172 0
-127 -190 -172 0
-127 -195 -172 0
-127 -186 -172 0
-127 -191 -172 0
-127 -196 -172 0
-127 17 24 31 18 25 32 76 83 90 77 84 91 183 188 193 184 189 194 185 190 195 186 191 196 172 0
-133 -24 -172 0
-133 -31 -172 0
-133 -25 -172 0
-133 -32 -172 0
-133 -83 -172 0
-133 -90 -172 0
-133 -84 -172 0
-133 -91 -172 0
-133 -188 -172 0
-133 -193 -172 0
-133 -189 -172 0
-133 -194 -172 0
-133 -190 -172 0
-133 -195 -172 0
-133 -191 -172 0
-133 -196 -172 0
-133 24 31 25 32 83 90 84 91 188 193 189 194 190 195 191 196 172 0
-139 -31 -172 0
-139 -32 -172 0
-139 -90 -172 0
-139 -91 -172 0
-139 -193 -172 0
-139 -194 -172 0
-139 -195 -172 0
-139 -196 -172 0
-139 31 32 90 91 193 194 195 196 172 0
-145 172 0
-128 -18 -172 0
-128 -25 -172 0
-128 -32 -172 0
-128 -19 -172 0
-128 -26 -172 0
-128 -33 -172 0
-128 -77 -172 0
-128 -84 -172 0
-128 -91 -172 0
-128 -78 -172 0
-128 -85 -172 0
-128 -92 -172 0
-128 -184 -172 0
-128 -189 -172 0
-128 -194 -172 0
-128 -185 -172 0
-128 -190 -172 0
-128 -195 -172 0
-128 -186 -172 0
-128 -191 -172 0
-128 -196 -172 0
-128 18 25 32 19 26 33 77 84 91 78 85 92 184 189 194 185 190 195 186 191 196 172 0
-134 -25 -172 0
-134 -32 -172 0
-134 -26 -172 0
-134 -33 -172 0
-134 -84 -172 0
-134 -91 -172 0
-134 -85 -172 0
-134 -92 -172 0
-134 -189 -172 0
-134 -194 -172 0
-134 -190 -172 0
-134 -195 -172 0
-134 -191 -172 0
-134 -196 -172 0
-134 25 32 26 33 84 91 85 92 189 194 190 195 191 196 172 0
-140 -32 -172 0
-140 -33 -172 0
-140 -91 -172 0
-140 -92 -172 0
-140 -194 -172 0
-140 -195 -172 0
-140 -196 -172 0
-140 32 33 91 92 194 195 196 172 0
-146 172 0
-129 -19 -172 0
-129 -26 -172 0
-129 -33 -172 0
-129 -20 -172 0
-129 -27 -172 0
-129 -34 -172 0
-129 -78 -172 0
-129 -85 -172 0
-129 -92 -172 0
-129 -79 -172 0
-129 -86 -172 0
-129 -93 -172 0
-129 -185 -172 0
-129 -190 -172 0
-129 -195 -172 0
-129 -186 -172 0
-129 -191 -172 0
-129 -196 -172 0
-129 19 26 33 20 27 34 78 85 92 79 86 93 185 190 195 186 191 196 172 0
-135 -26 -172 0
-135 -33 -172 0
-135 -27 -172 0
-135 -34 -172 0
-135 -85 -172 0
-135 -92 -172 0
-135 -86 -172 0
-135 -93 -172 0
-135 -190 -172 0
-135 -195 -172 0
-135 -191 -172 0
-135 -196 -172 0
-135 26 33 27 34 85 92 86 93 190 195 191 196 172 0
-141 -33 -172 0
-141 -34 -172 0
-141 -92 -172 0
-141 -93 -172 0
-141 -195 -172 0
-141 -196 -172 0
-141 33 34 92 93 195 196 172 0
-147 172 0
-178 -15 -221 0
-178 -22 -221 0
-178 -29 -221 0
-178 -16 -221 0
-178 -23 -221 0
-178 -30 -221 0
-178 -17 -221 0
-178 -24 -221 0
-178 -31 -221 0
-178 -74 -221 0
-178 -81 -221 0
-178 -88 -221 0
-178 -75 -221 0
-178 -82 -221 0
-178 -89 -221 0
-178 -76 -221 0
-178 -83 -221 0
-178 -90 -221 0
-178 -131 -221 0
-178 -137 -221 0
-178 -143 -221 0
-178 -132 -221 0
-178 -138 -221 0
-178 -144 -221 0
-178 -133 -221 0
-178 -139 -221 0
-178 -145 -221 0
-178 15 22 29 16 23 30 17 24 31 74 81 88 75 82 89 76 83 90 131 137 143 132 138 144 133 139 145 221 0
-183 -22 -221 0
-183 -29 -221 0
-183 -23 -221 0
-183 -30 -221 0
-183 -24 -221 0
-183 -31 -221 0
-183 -81 -221 0
-183 -88 -221 0
-183 -82 -221 0
-183 -89 -221 0
-183 -83 -221 0
-183 -90 -221 0
-183 -137 -221 0
-183 -143 -221 0
-183 -138 -221 0
-183 -144 -221 0
-183 -139 -221 0
-183 -145 -221 0
-183 22 29 23 30 24 31 81 88 82 89 83 90 137 143 138 144 139 145 221 0
-188 -29 -221 0
-188 -30 -221 0
-188 -31 -221 0
-188 -88 -221 0
-188 -89 -221 0
-188 -90 -221 0
-188 -143 -221 0
-188 -144 -221 0
-188 -145 -221 0
-188 29 30 31 88 89 90 143 144 145 221 0
-193 221 0
-179 -16 -221 0
-179 -23 -221 0
-179 -30 -221 0
-179 -17 -221 0
-179 -24 -221 0
-179 -31 -221 0
-179 -18 -221 0
-179 -25 -221 0
-179 -32 -221 0
-179 -75 -221 0
-179 -82 -221 0
-179 -89 -221 0
-179 -76 -221 0
-179 -83 -221 0
-179 -90 -221 0
-179 -77 -221 0
-179 -84 -221 0
-179 -91 -221 0
-179 -131 -221 0
-179 -137 -221 0
-179 -143 -221 0
-179 -132 -221 0
-179 -138 -221 0
-179 -144 -221 0
-179 -133 -221 0
-179 -139 -221 0
-179 -145 -221 0
-179 -134 -221 0
-179 -140 -221 0
-179 -146 -221 0
-179 16 23 30 17 24 31 18 25 32 75 82 89 76 83 90 77 84 91 131 137 143 132 138 144 133 139 145 134 140 146 221 0
-184 -23 -221 0
-184 -30 -221 0
-184 -24 -221 0
-184 -31 -221 0
-184 -25 -221 0
-184 -32 -221 0
-184 -82 -221 0
-184 -89 -221 0
-184 -83 -221 0
-184 -90 -221 0
-184 -84 -221 0
-184 -91 -221 0
-184 -137 -221 0
-184 -143 -221 0
-184 -138 -221 0
-184 -144 -221 0
-184 -139 -221 0
-184 -145 -221 0
-184 -140 -221 0
-184 -146 -221 0
-184 23 30 24 31 25 32 82 89 83 90 84 91 137 143 138 144 139 145 140 146 221 0
-189 -30 -221 0
-189 -31 -221 0
-189 -32 -221 0
-189 -89 -221 0
-189 -90 -221 0
-189 -91 -221 0
-189 -143 -221 0
-189 -144 -221 0
-189 -145 -221 0
-189 -146 -221 0
-189 30 31 32 89 90 91 143 144 145 146 221 0
-194 221 0
-180 -17 -221 0
-180 -24 -221 0
-180 -31 -221 0
-180 -18 -221 0
-180 -25 -221 0
-180 -32 -221 0
-180 -19 -221 0
-180 -26 -221 0
-180 -33 -221 0
-180 -76 -221 0
-180 -83 -221 0
-180 -90 -221 0
-180 -77 -221 0
-180 -84 -221 0
-180 -91 -221 0
-180 -78 -221 0
-180 -85 -221 0
-180 -92 -221 0
-180 -132 -221 0
-180 -138 -221 0
-180 -144 -221 0
-180 -133 -221 0
-180 -139 -221 0
-180 -145 -221 0
-180 -134 -221 0
-180 -140 -221 0
-180 -146 -221 0
-180 -135 -221 0
-180 -141 -221 0
-180 -147 -221 0
-180 17 24 31 18 25 32 19 26 33 76 83 90 77 84 91 78 85 92 132 138 144 133 139 145 134 140 146 135 141 147 221 0
-185 -24 -221 0
-185 -31 -221 0
-185 -25 -221 0
-185 -32 -221 0
-185 -26 -221 0
-185 -33 -221 0
-185 -83 -221 0
-185 -90 -221 0
-185 -84 -221 0
-185 -91 -221 0
-185 -85 -221 0
-185 -92 -221 0
-185 -138 -221 0
-185 -144 -221 0
-185 -139 -221 0
-185 -145 -221 0
-185 -140 -221 0
-185 -146 -221 0
-185 -141 -221 0
-185 -147 -221 0
-185 24 31 25 32 26 33 83 90 84 91 85 92 138 144 139 145 140 146 141 147 221 0
-190 -31 -221 0
-190 -32 -221 0
-190 -33 -221 0
-190 -90 -221 0
-190 -91 -221 0
-190 -92 -221 0
-190 -144 -221 0
-190 -145 -221 0
-190 -146 -221 0
-190 -147 -221 0
-190 31 32 33 90 91 92 144 145 146 147 221 0
-195 221 0
-181 -18 -221 0
-181 -25 -221 0
-181 -32 -221 0
-181 -19 -221 0
-181 -26 -221 0
-181 -33 -221 0
-181 -20 -221 0
-181 -27 -221 0
-181 -34 -221 0
-181 -77 -221 0
-181 -84 -221 0
-181 -91 -221 0
-181 -78 -221 0
-181 -85 -221 0
-181 -92 -221 0
-181 -79 -221 0
-181 -86 -221 0
-181 -93 -221 0
-181 -133 -221 0
-181 -139 -221 0
-181 -145 -221 0
-181 -134 -221 0
-181 -140 -221 0
-181 -146 -221 0
-181 -135 -221 0
-181 -141 -221 0
-181 -147 -221 0
-181 18 25 32 19 26 33 20 27 34 77 84 91 78 85 92 79 86 93 133 139 145 134 140 146 135 141 147 221 0
-186 -25 -221 0
-186 -32 -221 0
-186 -26 -221 0
-186 -33 -221 0
-186 -27 -221 0
-186 -34 -221 0
-186 -84 -221 0
-186 -91 -221 0
-186 -85 -221 0
-186 -92 -221 0
-186 -86 -221 0
-186 -93 -221 0
-186 -139 -221 0
-186 -145 -221 0
-186 -140 -221 0
-186 -146 -221 0
-186 -141 -221 0
-186 -147 -221 0
-186 25 32 26 33 27 34 84 91 85 92 86 93 139 145 140 146 141 147 221 0
-191 -32 -221 0
-191 -33 -221 0
-191 -34 -221 0
-191 -91 -221 0
-191 -92 -221 0
-191 -93 -221 0
-191 -145 -221 0
-191 -146 -221 0
-191 -147 -221 0
-191 32 33 34 91 92 93 145 146 147 221 0
-196 221 0
-229 -295 -280 0
-229 -302 -280 0
-229 -309 -280 0
-229 -352 -280 0
-229 -358 -280 0
-229 -364 -280 0
-229 -404 -280 0
-229 -409 -280 0
-229 -414 -280 0
-229 295 302 309 352 358 364 404 409 414 280 0
-236 -302 -280 0
-236 -309 -280 0
-236 -358 -280 0
-236 -364 -280 0
-236 -409 -280 0
-236 -414 -280 0
-236 302 309 358 364 409 414 280 0
-243 -309 -280 0
-243 -364 -280 0
-243 -414 -280 0
-243 309 364 414 280 0
-250 280 0
-230 -296 -280 0
-230 -303 -280 0
-230 -310 -280 0
-230 -352 -280 0
-230 -358 -280 0
-230 -364 -280 0
-230 -353 -280 0
-230 -359 -280 0
-230 -365 -280 0
-230 -404 -280 0
-230 -409 -280 0
-230 -414 -280 0
-230 -405 -280 0
-230 -410 -280 0
-230 -415 -280 0
-230 296 303 310 352 358 364 353 359 365 404 409 414 405 410 415 280 0
-237 -303 -280 0
-237 -310 -280 0
-237 -358 -280 0
-237 -364 -280 0
-237 -359 -280 0
-237 -365 -280 0
-237 -409 -280 0
-237 -414 -280 0
-237 -410 -280 0
-237 -415 -280 0
-237 303 310 358 364 359 365 409 414 410 415 280 0
-244 -310 -280 0
-244 -364 -280 0
-244 -365 -280 0
-244 -414 -280 0
-244 -415 -280 0
-244 310 364 365 414 415 280 0
-251 280 0
-231 -297 -280 0
-231 -304 -280 0
-231 -311 -280 0
-231 -353 -280 0
-231 -359 -280 0
-231 -365 -280 0
-231 -354 -280 0
-231 -360 -280 0
-231 -366 -280 0
-231 -404 -280 0
-231 -409 -280 0
-231 -414 -280 0
-231 -405 -280 0
-231 -410 -280 0
-231 -415 -280 0
-231 -406 -280 0
-231 -411 -280 0
-231 -416 -280 0
-231 297 304 311 353 359 365 354 360 366 404 409 414 405 410 415 406 411 416 280 0
-238 -304 -280 0
-238 -311 -280 0
-238 -359 -280 0
-238 -365 -280 0
-238 -360 -280 0
-238 -366 -280 0
-238 -409 -280 0
-238 -414 -280 0
-238 -410 -280 0
-238 -415 -280 0
-238 -411 -280 0
-238 -416 -280 0
-238 304 311 359 365 360 366 409 414 410 415 411 416 280 0
-245 -311 -280 0
-245 -365 -280 0
-245 -366 -280 0
-245 -414 -280 0
-245 -415 -280 0
-245 -416 -280 0
-245 311 365 366 414 415 416 280 0
-252 280 0
-232 -298 -280 0
-232 -305 -280 0
-232 -312 -280 0
-232 -354 -280 0
-232 -360 -280 0
-232 -366 -280 0
-232 -355 -280 0
-232 -361 -280 0
-232 -367 -280 0
-232 -405 -280 0
-232 -410 -280 0
-232 -415 -280 0
-232 -406 -280 0
-232 -411 -280 0
-232 -416 -280 0
-232 -407 -280 0
-232 -412 -280 0
-232 -417 -280 0
-232 298 305 312 354 360 366 355 361 367 405 410 415 406 411 416 407 412 417 280 0
-239 -305 -280 0
-239 -312 -280 0
-239 -360 -280 0
-239 -366 -280 0
-239 -361 -280 0
-239 -367 -280 0
-239 -410 -280 0
-239 -415 -280 0
-239 -411 -280 0
-239 -416 -280 0
-239 -412 -280 0
-239 -417 -280 0
-239 305 312 360 366 361 367 410 415 411 416 412 417 280 0
-246 -312 -280 0
-246 -366 -280 0
-246 -367 -280 0
-246 -415 -280 0
-246 -416 -280 0
-246 -417 -280 0
-246 312 366 367 415 416 417 280 0
-253 280 0
-233 -299 -280 0
-233 -306 -280 0
-233 -313 -280 0
-233 -355 -280 0
-233 -361 -280 0
-233 -367 -280 0
-233 -356 -280 0
-233 -362 -280 0
-233 -368 -280 0
-233 -406 -280 0
-233 -411 -280 0
-233 -416 -280 0
-233 -407 -280 0
-233 -412 -280 0
-233 -417 -280 0
-233 299 306 313 355 361 367 356 362 368 406 411 416 407 412 417 280 0
-240 -306 -280 0
-240 -313 -280 0
-240 -361 -280 0
-240 -367 -280 0
-240 -362 -280 0
-240 -368 -280 0
-240 -411 -280 0
-240 -416 -280 0
-240 -412 -280 0
-240 -417 -280 0
-240 306 313 361 367 362 368 411 416 412 417 280 0
-247 -313 -280 0
-247 -367 -280 0
-247 -368 -280 0
-247 -416 -280 0
-247 -417 -280 0
-247 313 367 368 416 417 280 0
-254 280 0
-234 -300 -280 0
-234 -307 -280 0
-234 -314 -280 0
-234 -356 -280 0
-234 -362 -280 0
-234 -368 -280 0
-234 -407 -280 0
-234 -412 -280 0
-234 -417 -280 0
-234 300 307 314 356 362 368 407 412 417 280 0
-241 -307 -280 0
-241 -314 -280 0
-241 -362 -280 0
-241 -368 -280 0
-241 -412 -280 0
-241 -417 -280 0
-241 307 314 362 368 412 417 280 0
-248 -314 -280 0
-248 -368 -280 0
-248 -417 -280 0
-248 314 368 417 280 0
-255 280 0
-288 -236 -339 0
-288 -243 -339 0
-288 -250 -339 0
-288 -352 -339 0
-288 -358 -339 0
-288 -364 -339 0
-288 -404 -339 0
-288 -409 -339 0
-288 -414 -339 0
-288 236 243 250 352 358 364 404 409 414 339 0
-295 -243 -339 0
-295 -250 -339 0
-295 -358 -339 0
-295 -364 -339 0
-295 -409 -339 0
-295 -414 -339 0
-295 243 250 358 364 409 414 339 0
-302 -250 -339 0
-302 -364 -339 0
-302 -414 -339 0
-302 250 364 414 339 0
-309 339 0
-289 -237 -339 0
-289 -244 -339 0
-289 -251 -339 0
-289 -352 -339 0
-289 -358 -339 0
-289 -364 -339 0
-289 -353 -339 0
-289 -359 -339 0
-289 -365 -339 0
-289 -404 -339 0
-289 -409 -339 0
-289 -414 -339 0
-289 -405 -339 0
-289 -410 -339 0
-289 -415 -339 0
-289 237 244 251 352 358 364 353 359 365 404 409 414 405 410 415 339 0
-296 -244 -339 0
-296 -251 -339 0
-296 -358 -339 0
-296 -364 -339 0
-296 -359 -339 0
-296 -365 -339 0
-296 -409 -339 0
-296 -414 -339 0
-296 -410 -339 0
-296 -415 -339 0
-296 244 251 358 364 359 365 409 414 410 415 339 0
-303 -251 -339 0
-303 -364 -339 0
-303 -365 -339 0
-303 -414 -339 0
-303 -415 -339 0
-303 251 364 365 414 415 339 0
-310 339 0
-290 -238 -339 0
-290 -245 -339 0
-290 -252 -339 0
-290 -353 -339 0
-290 -359 -339 0
-290 -365 -339 0
-290 -354 -339 0
-290 -360 -339 0
-290 -366 -339 0
-290 -404 -339 0
-290 -409 -339 0
-290 -414 -339 0
-290 -405 -339 0
-290 -410 -339 0
-290 -415 -339 0
-290 -406 -339 0
-290 -411 -339 0
-290 -416 -339 0
-290 238 245 252 353 359 365 354 360 366 404 409 414 405 410 415 406 411 416 339 0
-297 -245 -339 0
-297 -252 -339 0
-297 -359 -339 0
-297 -365 -339 0
-297 -360 -339 0
-297 -366 -339 0
-297 -409 -339 0
-297 -414 -339 0
-297 -410 -339 0
-297 -415 -339 0
-297 -411 -339 0
-297 -416 -339 0
-297 245 252 359 365 360 366 409 414 410 415 411 416 339 0
-304 -252 -339 0
-304 -365 -339 0
-304 -366 -339 0
-304 -414 -339 0
-304 -415 -339 0
-304 -416 -339 0
-304 252 365 366 414 415 416 339 0
-311 339 0
-291 -239 -339 0
-291 -246 -339 0
-291 -253 -339 0
-291 -354 -339 0
-291 -360 -339 0
-291 -366 -339 0
-291 -355 -339 0
-291 -361 -339 0
-291 -367 -339 0
-291 -405 -339 0
-291 -410 -339 0
-291 -415 -339 0
-291 -406 -339 0
-291 -411 -339 0
-291 -416 -339 0
-291 -407 -339 0
-291 -412 -339 0
-291 -417 -339 0
-291 239 246 253 354 360 366 355 361 367 405 410 415 406 411 416 407 412 417 339 0
-298 -246 -339 0
-298 -253 -339 0
-298 -360 -339 0
-298 -366 -339 0
-298 -361 -339 0
-298 -367 -339 0
-298 -410 -339 0
-298 -415 -339 0
-298 -411 -339 0
-298 -416 -339 0
-298 -412 -339 0
-298 -417 -339 0
-298 246 253 360 366 361 367 410 415 411 416 412 417 339 0
-305 -253 -339 0
-305 -366 -339 0
-305 -367 -339 0
-305 -415 -339 0
-305 -416 -339 0
-305 -417 -339 0
-305 253 366 367 415 416 417 339 0
-312 339 0
-292 -240 -339 0
-292 -247 -339 0
-292 -254 -339 0
-292 -355 -339 0
-292 -361 -339 0
-292 -367 -339 0
-292 -356 -339 0
-292 -362 -339 0
-292 -368 -339 0
-292 -406 -339 0
-292 -411 -339 0
-292 -416 -339 0
-292 -407 -339 0
-292 -412 -339 0
-292 -417 -339 0
-292 240 247 254 355 361 367 356 362 368 406 411 416 407 412 417 339 0
-299 -247 -339 0
-299 -254 -339 0
-299 -361 -339 0
-299 -367 -339 0
-299 -362 -339 0
-299 -368 -339 0
-299 -411 -339 0
-299 -416 -339 0
-299 -412 -339 0
-299 -417 -339 0
-299 247 254 361 367 362 368 411 416 412 417 339 0
-306 -254 -339 0
-306 -367 -339 0
-306 -368 -339 0
-306 -416 -339 0
-306 -417 -339 0
-306 254 367 368 416 417 339 0
-313 339 0
-293 -241 -339 0
-293 -248 -339 0
-293 -255 -339 0
-293 -356 -339 0
-293 -362 -339 0
-293 -368 -339 0
-293 -407 -339 0
-293 -412 -339 0
-293 -417 -339 0
-293 241 248 255 356 362 368 407 412 417 339 0
-300 -248 -339 0
-300 -255 -339 0
-300 -362 -339 0
-300 -368 -339 0
-300 -412 -339 0
-300 -417 -339 0
-300 248 255 362 368 412 417 339 0
-307 -255 -339 0
-307 -368 -339 0
-307 -417 -339 0
-307 255 368 417 339 0
-314 339 0
-346 -236 -393 0
-346 -243 -393 0
-346 -250 -393 0
-346 -237 -393 0
-346 -244 -393 0
-346 -251 -393 0
-346 -295 -393 0
-346 -302 -393 0
-346 -309 -393 0
-346 -296 -393 0
-346 -303 -393 0
-346 -310 -393 0
-346 -404 -393 0
-346 -409 -393 0
-346 -414 -393 0
-346 -405 -393 0
-346 -410 -393 0
-346 -415 -393 0
-346 236 243 250 237 244 251 295 302 309 296 303 310 404 409 414 405 410 415 393 0
-352 -243 -393 0
-352 -250 -393 0
-352 -244 -393 0
-352 -251 -393 0
-352 -302 -393 0
-352 -309 -393 0
-352 -303 -393 0
-352 -310 -393 0
-352 -409 -393 0
-352 -414 -393 0
-352 -410 -393 0
-352 -415 -393 0
-352 243 250 244 251 302 309 303 310 409 414 410 415 393 0
-358 -250 -393 0
-358 -251 -393 0
-358 -309 -393 0
-358 -310 -393 0
-358 -414 -393 0
-358 -415 -393 0
-358 250 251 309 310 414 415 393 0
-364 393 0
-347 -237 -393 0
-347 -244 -393 0
-347 -251 -393 0
-347 -238 -393 0
-347 -245 -393 0
-347 -252 -393 0
-347 -296 -393 0
-347 -303 -393 0
-347 -310 -393 0
-347 -297 -393 0
-347 -304 -393 0
-347 -311 -393 0
-347 -404 -393 0
-347 -409 -393 0
-347 -414 -393 0
-347 -405 -393 0
-347 -410 -393 0
-347 -415 -393 0
-347 -406 -393 0
-347 -411 -393 0
-347 -416 -393 0
-347 237 244 251 238 245 252 296 303 310 297 304 311 404 409 414 405 410 415 406 411 416 393 0
-353 -244 -393 0
-353 -251 -393 0
-353 -245 -393 0
-353 -252 -393 0
-353 -303 -393 0
-353 -310 -393 0
-353 -304 -393 0
-353 -311 -393 0
-353 -409 -393 0
-353 -414 -393 0
-353 -410 -393 0
-353 -415 -393 0
-353 -411 -393 0
-353 -416 -393 0
-353 244 251 245 252 303 310 304 311 409 414 410 415 411 416 393 0
-359 -251 -393 0
-359 -252 -393 0
-359 -310 -393 0
-359 -311 -393 0
-359 -414 -393 0
-359 -415 -393 0
-359 -416 -393 0
-359 251 252 310 311 414 415 416 393 0
-365 393 0
-348 -238 -393 0
-348 -245 -393 0
-348 -252 -393 0
-348 -239 -393 0
-348 -246 -393 0
-348 -253 -393 0
-348 -297 -393 0
-348 -304 -393 0
-348 -311 -393 0
-348 -298 -393 0
-348 -305 -393 0
-348 -312 -393 0
-348 -404 -393 0
-348 -409 -393 0
-348 -414 -393 0
-348 -405 -393 0
-348 -410 -393 0
-348 -415 -393 0
-348 -406 -393 0
-348 -411 -393 0
-348 -416 -393 0
-348 -407 -393 0
-348 -412 -393 0
-348 -417 -393 0
-348 238 245 252 239 246 253 297 304 311 298 305 312 404 409 414 405 410 415 406 411 416 407 412 417 393 0
-354 -245 -393 0
-354 -252 -393 0
-354 -246 -393 0
-354 -253 -393 0
-354 -304 -393 0
-354 -311 -393 0
-354 -305 -393 0
-354 -312 -393 0
-354 -409 -393 0
-354 -414 -393 0
-354 -410 -393 0
-354 -415 -393 0
-354 -411 -393 0
-354 -416 -393 0
-354 -412 -393 0
-354 -417 -393 0
-354 245 252 246 253 304 311 305 312 409 414 410 415 411 416 412 417 393 0
-360 -252 -393 0
-360 -253 -393 0
-360 -311 -393 0
-360 -312 -393 0
-360 -414 -393 0
-360 -415 -393 0
-360 -416 -393 0
-360 -417 -393 0
-360 252 253 311 312 414 415 416 417 393 0
-366 393 0
-349 -239 -393 0
-349 -246 -393 0
-349 -253 -393 0
-349 -240 -393 0
-349 -247 -393 0
-349 -254 -393 0
-349 -298 -393 0
-349 -305 -393 0
-349 -312 -393 0
-349 -299 -393 0
-349 -306 -393 0
-349 -313 -393 0
-349 -405 -393 0
-349 -410 -393 0
-349 -415 -393 0
-349 -406 -393 0
-349 -411 -393 0
-349 -416 -393 0
-349 -407 -393 0
-349 -412 -393 0
-349 -417 -393 0
-349 239 246 253 240 247 254 298 305 312 299 306 313 405 410 415 406 411 416 407 412 417 393 0
-355 -246 -393 0
-355 -253 -393 0
-355 -247 -393 0
-355 -254 -393 0
-355 -305 -393 0
-355 -312 -393 0
-355 -306 -393 0
-355 -313 -393 0
-355 -410 -393 0
-355 -415 -393 0
-355 -411 -393 0
-355 -416 -393 0
-355 -412 -393 0
-355 -417 -393 0
-355 246 253 247 254 305 312 306 313 410 415 411 416 412 417 393 0
-361 -253 -393 0
-361 -254 -393 0
-361 -312 -393 0
-361 -313 -393 0
-361 -415 -393 0
-361 -416 -393 0
-361 -417 -393 0
-361 253 254 312 313 415 416 417 393 0
-367 393 0
-350 -240 -393 0
-350 -247 -393 0
-350 -254 -393 0
-350 -241 -393 0
-350 -248 -393 0
-350 -255 -393 0
-350 -299 -393 0
-350 -306 -393 0
-350 -313 -393 0
-350 -300 -393 0
-350 -307 -393 0
-350 -314 -393 0
-350 -406 -393 0
-350 -411 -393 0
-350 -416 -393 0
-350 -407 -393 0
-350 -412 -393 0
-350 -417 -393 0
-350 240 247 254 241 248 255 299 306 313 300 307 314 406 411 416 407 412 417 393 0
-356 -247 -393 0
-356 -254 -393 0
-356 -248 -393 0
-356 -255 -393 0
-356 -306 -393 0
-356 -313 -393 0
-356 -307 -393 0
-356 -314 -393 0
-356 -411 -393 0
-356 -416 -393 0
-356 -412 -393 0
-356 -417 -393 0
-356 247 254 248 255 306 313 307 314 411 416 412 417 393 0
-362 -254 -393 0
-362 -255 -393 0
-362 -313 -393 0
-362 -314 -393 0
-362 -416 -393 0
-362 -417 -393 0
-362 254 255 313 314 416 417 393 0
-368 393 0
-399 -236 -442 0
-399 -243 -442 0
-399 -250 -442 0
-399 -237 -442 0
-399 -244 -442 0
-399 -251 -442 0
-399 -238 -442 0
-399 -245 -442 0
-399 -252 -442 0
-399 -295 -442 0
-399 -302 -442 0
-399 -309 -442 0
-399 -296 -442 0
-399 -303 -442 0
-399 -310 -442 0
-399 -297 -442 0
-399 -304 -442 0
-399 -311 -442 0
-399 -352 -442 0
-399 -358 -442 0
-399 -364 -442 0
-399 -353 -442 0
-399 -359 -442 0
-399 -365 -442 0
-399 -354 -442 0
-399 -360 -442 0
-399 -366 -442 0
-399 236 243 250 237 244 251 238 245 252 295 302 309 296 303 310 297 304 311 352 358 364 353 359 365 354 360 366 442 0
-404 -243 -442 0
-404 -250 -442 0
-404 -244 -442 0
-404 -251 -442 0
-404 -245 -442 0
-404 -252 -442 0
-404 -302 -442 0
-404 -309 -442 0
-404 -303 -442 0
-404 -310 -442 0
-404 -304 -442 0
-404 -311 -442 0
-404 -358 -442 0
-404 -364 -442 0
-404 -359 -442 0
-404 -365 -442 0
-404 -360 -442 0
-404 -366 -442 0
-404 243 250 244 251 245 252 302 309 303 310 304 311 358 364 359 365 360 366 442 0
-409 -250 -442 0
-409 -251 -442 0
-409 -252 -442 0
-409 -309 -442 0
-409 -310 -442 0
-409 -311 -442 0
-409 -364 -442 0
-409 -365 -442 0
-409 -366 -442 0
-409 250 251 252 309 310 311 364 365 366 442 0
-414 442 0
-400 -237 -442 0
-400 -244 -442 0
-400 -251 -442 0
-400 -238 -442 0
-400 -245 -442 0
-400 -252 -442 0
-400 -239 -442 0
-400 -246 -442 0
-400 -253 -442 0
-400 -296 -442 0
-400 -303 -442 0
-400 -310 -442 0
-400 -297 -442 0
-400 -304 -442 0
-400 -311 -442 0
-400 -298 -442 0
-400 -305 -442 0
-400 -312 -442 0
-400 -352 -442 0
-400 -358 -442 0
-400 -364 -442 0
-400 -353 -442 0
-400 -359 -442 0
-400 -365 -442 0
-400 -354 -442 0
-400 -360 -442 0
-400 -366 -442 0
-400 -355 -442 0
-400 -361 -442 0
-400 -367 -442 0
-400 237 244 251 238 245 252 239 246 253 296 303 310 297 304 311 298 305 312 352 358 364 353 359 365 354 360 366 355 361 367 442 0
-405 -244 -442 0
-405 -251 -442 0
-405 -245 -442 0
-405 -252 -442 0
-405 -246 -442 0
-405 -253 -442 0
-405 -303 -442 0
-405 -310 -442 0
-405 -304 -442 0
-405 -311 -442 0
-405 -305 -442 0
-405 -312 -442 0
-405 -358 -442 0
-405 -364 -442 0
-405 -359 -442 0
-405 -365 -442 0
-405 -360 -442 0
-405 -366 -442 0
-405 -361 -442 0
-405 -367 -442 0
-405 244 251 245 252 246 253 303 310 304 311 305 312 358 364 359 365 360 366 361 367 442 0
-410 -251 -442 0
-410 -252 -442 0
-410 -253 -442 0
-410 -310 -442 0
-410 -311 -442 0
-410 -312 -442 0
-410 -364 -442 0
-410 -365 -442 0
-410 -366 -442 0
-410 -367 -442 0
-410 251 252 253 310 311 312 364 365 366 367 442 0
-415 442 0
-401 -238 -442 0
-401 -245 -442 0
-401 -252 -442 0
-401 -239 -442 0
-401 -246 -442 0
-401 -253 -442 0
-401 -240 -442 0
-401 -247 -442 0
-401 -254 -442 0
-401 -297 -442 0
-401 -304 -442 0
-401 -311 -442 0
-401 -298 -442 0
-401 -305 -442 0
-401 -312 -442 0
-401 -299 -442 0
-401 -306 -442 0
-401 -313 -442 0
-401 -353 -442 0
-401 -359 -442 0
-401 -365 -442 0
-401 -354 -442 0
-401 -360 -442 0
-401 -366 -442 0
-401 -355 -442 0
-401 -361 -442 0
-401 -367 -442 0
-401 -356 -442 0
-401 -362 -442 0
-401 -368 -442 0
-401 238 245 252 239 246 253 240 247 254 297 304 311 298 305 312 299 306 313 353 359 365 354 360 366 355 361 367 356 362 368 442 0
-406 -245 -442 0
-406 -252 -442 0
-406 -246 -442 0
-406 -253 -442 0
-406 -247 -442 0
-406 -254 -442 0
-406 -304 -442 0
-406 -311 -442 0
-406 -305 -442 0
-406 -312 -442 0
-406 -306 -442 0
-406 -313 -442 0
-406 -359 -442 0
-406 -365 -442 0
-406 -360 -442 0
-406 -366 -442 0
-406 -361 -442 0
-406 -367 -442 0
-406 -362 -442 0
-406 -368 -442 0
-406 245 252 246 253 247 254 304 311 305 312 306 313 359 365 360 366 361 367 362 368 442 0
-411 -252 -442 0
-411 -253 -442 0
-411 -254 -442 0
-411 -311 -442 0
-411 -312 -442 0
-411 -313 -442 0
-411 -365 -442 0
-411 -366 -442 0
-411 -367 -442 0
-411 -368 -442 0
-411 252 253 254 311 312 313 365 366 367 368 442 0
-416 442 0
-402 -239 -442 0
-402 -246 -442 0
-402 -253 -442 0
-402 -240 -442 0
-402 -247 -442 0
-402 -254 -442 0
-402 -241 -442 0
-402 -248 -442 0
-402 -255 -442 0
-402 -298 -442 0
-402 -305 -442 0
-402 -312 -442 0
-402 -299 -442 0
-402 -306 -442 0
-402 -313 -442 0
-402 -300 -442 0
-402 -307 -442 0
-402 -314 -442 0
-402 -354 -442 0
-402 -360 -442 0
-402 -366 -442 0
-402 -355 -442 0
-402 -361 -442 0
-402 -367 -442 0
-402 -356 -442 0
-402 -362 -442 0
-402 -368 -442 0
-402 239 246 253 240 247 254 241 248 255 298 305 312 299 306 313 300 307 314 354 360 366 355 361 367 356 362 368 442 0
-407 -246 -442 0
-407 -253 -442 0
-407 -247 -442 0
-407 -254 -442 0
-407 -248 -442 0
-407 -255 -442 0
-407 -305 -442 0
-407 -312 -442 0
-407 -306 -442 0
-407 -313 -442 0
-407 -307 -442 0
-407 -314 -442 0
-407 -360 -442 0
-407 -366 -442 0
-407 -361 -442 0
-407 -367 -442 0
-407 -362 -442 0
-407 -368 -442 0
-407 246 253 247 254 248 255 305 312 306 313 307 314 360 366 361 367 362 368 442 0
-412 -253 -442 0
-412 -254 -442 0
-412 -255 -442 0
-412 -312 -442 0
-412 -313 -442 0
-412 -314 -442 0
-412 -366 -442 0
-412 -367 -442 0
-412 -368 -442 0
-412 253 254 255 312 313 314 366 367 368 442 0
-417 442 0
-450 -516 -501 0
-450 -523 -501 0
-450 -530 -501 0
-450 -573 -501 0
-450 -579 -501 0
-450 -585 -501 0
-450 -625 -501 0
-450 -630 -501 0
-450 -635 -501 0
-450 516 523 530 573 579 585 625 630 635 501 0
-457 -523 -501 0
-457 -530 -501 0
-457 -579 -501 0
-457 -585 -501 0
-457 -630 -501 0
-457 -635 -501 0
-457 523 530 579 585 630 635 501 0
-464 -530 -501 0
-464 -585 -501 0
-464 -635 -501 0
-464 530 585 635 501 0
-471 501 0
-451 -517 -501 0
-451 -524 -501 0
-451 -531 -501 0
-451 -573 -501 0
-451 -579 -501 0
-451 -585 -501 0
-451 -574 -501 0
-451 -580 -501 0
-451 -586 -501 0
-451 -625 -501 0
-451 -630 -501 0
-451 -635 -501 0
-451 -626 -501 0
-451 -631 -501 0
-451 -636 -501 0
-451 517 524 531 573 579 585 574 580 586 625 630 635 626 631 636 501 0
-458 -524 -501 0
-458 -531 -501 0
-458 -579 -501 0
-458 -585 -501 0
-458 -580 -501 0
-458 -586 -501 0
-458 -630 -501 0
-458 -635 -501 0
-458 -631 -501 0
-458 -636 -501 0
-458 524 531 579 585 580 586 630 635 631 636 501 0
-465 -531 -501 0
-465 -585 -501 0
-465 -586 -501 0
-465 -635 -501 0
-465 -636 -501 0
-465 531 585 586 635 636 501 0
-472 501 0
-452 -518 -501 0
-452 -525 -501 0
-452 -532 -501 0
-452 -574 -501 0
-452 -580 -501 0
-452 -586 -501 0
-452 -575 -501 0
-452 -581 -501 0
-452 -587 -501 0
-452 -625 -501 0
-452 -630 -501 0
-452 -635 -501 0
-452 -626 -501 0
-452 -631 -501 0
-452 -636 -501 0
-452 -627 -501 0
-452 -632 -501 0
-452 -637 -501 0
-452 518 525 532 574 580 586 575 581 587 625 630 635 626 631 636 627 632 637 501 0
-459 -525 -501 0
-459 -532 -501 0
-459 -580 -501 0
-459 -586 -501 0
-459 -581 -501 0
-459 -587 -501 0
-459 -630 -501 0
-459 -635 -501 0
-459 -631 -501 0
-459 -636 -501 0
-459 -632 -501 0
-459 -637 -501 0
-459 525 532 580 586 581 587 630 635 631 636 632 637 501 0
-466 -532 -501 0
-466 -586 -501 0
-466 -587 -501 0
-466 -635 -501 0
-466 -636 -501 0
-466 -637 -501 0
-466 532 586 587 635 636 637 501 0
-473 501 0
-453 -519 -501 0
-453 -526 -501 0
-453 -533 -501 0
-453 -575 -501 0
-453 -581 -501 0
-453 -587 -501 0
-453 -576 -501 0
-453 -582 -501 0
-453 -588 -501 0
-453 -626 -501 0
-453 -631 -501 0
-453 -636 -501 0
-453 -627 -501 0
-453 -632 -501 0
-453 -637 -501 0
-453 -628 -501 0
-453 -633 -501 0
-453 -638 -501 0
-453 519 526 533 575 581 587 576 582 588 626 631 636 627 632 637 628 633 638 501 0
-460 -526 -501 0
-460 -533 -501 0
-460 -581 -501 0
-460 -587 -501 0
-460 -582 -501 0
-460 -588 -501 0
-460 -631 -501 0
-460 -636 -501 0
-460 -632 -501 0
-460 -637 -501 0
-460 -633 -501 0
-460 -638 -501 0
-460 526 533 581 587 582 588 631 636 632 637 633 638 501 0
-467 -533 -501 0
-467 -587 -501 0
-467 -588 -501 0
-467 -636 -501 0
-467 -637 -501 0
-467 -638 -501 0
-467 533 587 588 636 637 638 501 0
-474 501 0
-454 -520 -501 0
-454 -527 -501 0
-454 -534 -501 0
-454 -576 -501 0
-454 -582 -501 0
-454 -588 -501 0
-454 -577 -501 0
-454 -583 -501 0
-454 -589 -501 0
-454 -627 -501 0
-454 -632 -501 0
-454 -637 -501 0
-454 -628 -501 0
-454 -633 -501 0
-454 -638 -501 0
-454 520 527 534 576 582 588 577 583 589 627 632 637 628 633 638 501 0
-461 -527 -501 0
-461 -534 -501 0
-461 -582 -501 0
-461 -588 -501 0
-461 -583 -501 0
-461 -589 -501 0
-461 -632 -501 0
-461 -637 -501 0
-461 -633 -501 0
-461 -638 -501 0
-461 527 534 582 588 583 589 632 637 633 638 501 0
-468 -534 -501 0
-468 -588 -501 0
-468 -589 -501 0
-468 -637 -501 0
-468 -638 -501 0
-468 534 588 589 637 638 501 0
-475 501 0
-455 -521 -501 0
-455 -528 -501 0
-455 -535 -501 0
-455 -577 -501 0
-455 -583 -501 0
-455 -589 -501 0
-455 -628 -501 0
-455 -633 -501 0
-455 -638 -501 0
-455 521 528 535 577 583 589 628 633 638 501 0
-462 -528 -501 0
-462 -535 -501 0
-462 -583 -501 0
-462 -589 -501 0
-462 -633 -501 0
-462 -638 -501 0
-462 528 535 583 589 633 638 501 0
-469 -535 -501 0
-469 -589 -501 0
-469 -638 -501 0
-469 535 589 638 501 0
-476 501 0
-509 -457 -560 0
-509 -464 -560 0
-509 -471 -560 0
-509 -573 -560 0
-509 -579 -560 0
-509 -585 -560 0
-509 -625 -560 0
-509 -630 -560 0
-509 -635 -560 0
-509 457 464 471 573 579 585 625 630 635 560 0
-516 -464 -560 0
-516 -471 -560 0
-516 -579 -560 0
-516 -585 -560 0
-516 -630 -560 0
-516 -635 -560 0
-516 464 471 579 585 630 635 560 0
-523 -471 -560 0
-523 -585 -560 0
-523 -635 -560 0
-523 471 585 635 560 0
-530 560 0
-510 -458 -560 0
-510 -465 -560 0
-510 -472 -560 0
-510 -573 -560 0
-510 -579 -560 0
-510 -585 -560 0
-510 -574 -560 0
-510 -580 -560 0
-510 -586 -560 0
-510 -625 -560 0
-510 -630 -560 0
-510 -635 -560 0
-510 -626 -560 0
-510 -631 -560 0
-510 -636 -560 0
-510 458 465 472 573 579 585 574 580 586 625 630 635 626 631 636 560 0
-517 -465 -560 0
-517 -472 -560 0
-517 -579 -560 0
-517 -585 -560 0
-517 -580 -560 0
-517 -586 -560 0
-517 -630 -560 0
-517 -635 -560 0
-517 -631 -560 0
-517 -636 -560 0
-517 465 472 579 585 580 586 630 635 631 636 560 0
-524 -472 -560 0
-524 -585 -560 0
-524 -586 -560 0
-524 -635 -560 0
-524 -636 -560 0
-524 472 585 586 635 636 560 0
-531 560 0
-511 -459 -560 0
-511 -466 -560 0
-511 -473 -560 0
-511 -574 -560 0
-511 -580 -560 0
-511 -586 -560 0
-511 -575 -560 0
-511 -581 -560 0
-511 -587 -560 0
-511 -625 -560 0
-511 -630 -560 0
-511 -635 -560 0
-511 -626 -560 0
-511 -631 -560 0
-511 -636 -560 0
-511 -627 -560 0
-511 -632 -560 0
-511 -637 -560 0
-511 459 466 473 574 580 586 575 581 587 625 630 635 626 631 636 627 632 637 560 0
-518 -466 -560 0
-518 -473 -560 0
-518 -580 -560 0
-518 -586 -560 0
-518 -581 -560 0
-518 -587 -560 0
-518 -630 -560 0
-518 -635 -560 0
-518 -631 -560 0
-518 -636 -560 0
-518 -632 -560 0
-518 -637 -560 0
-518 466 473 580 586 581 587 630 635 631 636 632 637 560 0
-525 -473 -560 0
-525 -586 -560 0
-525 -587 -560 0
-525 -635 -560 0
-525 -636 -560 0
-525 -637 -560 0
-525 473 586 587 635 636 637 560 0
-532 560 0
-512 -460 -560 0
-512 -467 -560 0
-512 -474 -560 0
-512 -575 -560 0
-512 -581 -560 0
-512 -587 -560 0
-512 -576 -560 0
-512 -582 -560 0
-512 -588 -560 0
-512 -626 -560 0
-512 -631 -560 0
-512 -636 -560 0
-512 -627 -560 0
-512 -632 -560 0
-512 -637 -560 0
-512 -628 -560 0
-512 -633 -560 0
-512 -638 -560 0
-512 460 467 474 575 581 587 576 582 588 626 631 636 627 632 637 628 633 638 560 0
-519 -467 -560 0
-519 -474 -560 0
-519 -581 -560 0
-519 -587 -560 0
-519 -582 -560 0
-519 -588 -560 0
-519 -631 -560 0
-519 -636 -560 0
-519 -632 -560 0
-519 -637 -560 0
-519 -633 -560 0
-519 -638 -560 0
-519 467 474 581 587 582 588 631 636 632 637 633 638 560 0
-526 -474 -560 0
-526 -587 -560 0
-526 -588 -560 0
-526 -636 -560 0
-526 -637 -560 0
-526 -638 -560 0
-526 474 587 588 636 637 638 560 0
-533 560 0
-513 -461 -560 0
-513 -468 -560 0
-513 -475 -560 0
-513 -576 -560 0
-513 -582 -560 0
-513 -588 -560 0
-513 -577 -560 0
-513 -583 -560 0
-513 -589 -560 0
-513 -627 -560 0
-513 -632 -560 0
-513 -637 -560 0
-513 -628 -560 0
-513 -633 -560 0
-513 -638 -560 0
-513 461 468 475 576 582 588 577 583 589 627 632 637 628 633 638 560 0
-520 -468 -560 0
-520 -475 -560 0
-520 -582 -560 0
-520 -588 -560 0
-520 -583 -560 0
-520 -589 -560 0
-520 -632 -560 0
-520 -637 -560 0
-520 -633 -560 0
-520 -638 -560 0
-520 468 475 582 588 583 589 632 637 633 638 560 0
-527 -475 -560 0
-527 -588 -560 0
-527 -589 -560 0
-527 -637 -560 0
-527 -638 -560 0
-527 475 588 589 637 638 560 0
-534 560 0
-514 -462 -560 0
-514 -469 -560 0
-514 -476 -560 0
-514 -577 -560 0
-514 -583 -560 0
-514 -589 -560 0
-514 -628 -560 0
-514 -633 -560 0
-514 -638 -560 0
-514 462 469 476 577 583 589 628 633 638 560 0
-521 -469 -560 0
-521 -476 -560 0
-521 -583 -560 0
-521 -589 -560 0
-521 -633 -560 0
-521 -638 -560 0
-521 469 476 583 589 633 638 560 0
-528 -476 -560 0
-528 -589 -560 0
-528 -638 -560 0
-528 476 589 638 560 0
-535 560 0
-567 -457 -614 0
-567 -464 -614 0
-567 -471 -614 0
-567 -458 -614 0
-567 -465 -614 0
-567 -472 -614 0
-567 -516 -614 0
-567 -523 -614 0
-567 -530 -614 0
-567 -517 -614 0
-567 -524 -614 0
-567 -531 -614 0
-567 -625 -614 0
-567 -630 -614 0
-567 -635 -614 0
-567 -626 -614 0
-567 -631 -614 0
-567 -636 -614 0
-567 457 464 471 458 465 472 516 523 530 517 524 531 625 630 635 626 631 636 614 0
-573 -464 -614 0
-573 -471 -614 0
-573 -465 -614 0
-573 -472 -614 0
-573 -523 -614 0
-573 -530 -614 0
-573 -524 -614 0
-573 -531 -614 0
-573 -630 -614 0
-573 -635 -614 0
-573 -631 -614 0
-573 -636 -614 0
-573 464 471 465 472 523 530 524 531 630 635 631 636 614 0
-579 -471 -614 0
-579 -472 -614 0
-579 -530 -614 0
-579 -531 -614 0
-579 -635 -614 0
-579 -636 -614 0
-579 471 472 530 531 635 636 614 0
-585 614 0
-568 -458 -614 0
-568 -465 -614 0
-568 -472 -614 0
-568 -459 -614 0
-568 -466 -614 0
-568 -473 -614 0
-568 -517 -614 0
-568 -524 -614 0
-568 -531 -614 0
-568 -518 -614 0
-568 -525 -614 0
-568 -532 -614 0
-568 -625 -614 0
-568 -630 -614 0
-568 -635 -614 0
-568 -626 -614 0
-568 -631 -614 0
-568 -636 -614 0
-568 -627 -614 0
-568 -632 -614 0
-568 -637 -614 0
-568 458 465 472 459 466 473 517 524 531 518 525 532 625 630 635 626 631 636 627 632 637 614 0
-574 -465 -614 0
-574 -472 -614 0
-574 -466 -614 0
-574 -473 -614 0
-574 -524 -614 0
-574 -531 -614 0
-574 -525 -614 0
-574 -532 -614 0
-574 -630 -614 0
-574 -635 -614 0
-574 -631 -614 0
-574 -636 -614 0
-574 -632 -614 0
-574 -637 -614 0
-574 465 472 466 473 524 531 525 532 630 635 631 636 632 637 614 0
-580 -472 -614 0
-580 -473 -614 0
-580 -531 -614 0
-580 -532 -614 0
-580 -635 -614 0
-580 -636 -614 0
-580 -637 -614 0
-580 472 473 531 532 635 636 637 614 0
-586 614 0
-569 -459 -614 0
-569 -466 -614 0
-569 -473 -614 0
-569 -460 -614 0
-569 -467 -614 0
-569 -474 -614 0
-569 -518 -614 0
-569 -525 -614 0
-569 -532 -614 0
-569 -519 -614 0
-569 -526 -614 0
-569 -533 -614 0
-569 -625 -614 0
-569 -630 -614 0
-569 -635 -614 0
-569 -626 -614 0
-569 -631 -614 0
-569 -636 -614 0
-569 -627 -614 0
-569 -632 -614 0
-569 -637 -614 0
-569 -628 -614 0
-569 -633 -614 0
-569 -638 -614 0
-569 459 466 473 460 467 474 518 525 532 519 526 533 625 630 635 626 631 636 627 632 637 628 633 638 614 0
-575 -466 -614 0
-575 -473 -614 0
-575 -467 -614 0
-575 -474 -614 0
-575 -525 -614 0
-575 -532 -614 0
-575 -526 -614 0
-575 -533 -614 0
-575 -630 -614 0
-575 -635 -614 0
-575 -631 -614 0
-575 -636 -614 0
-575 -632 -614 0
-575 -637 -614 0
-575 -633 -614 0
-575 -638 -614 0
-575 466 473 467 474 525 532 526 533 630 635 631 636 632 637 633 638 614 0
-581 -473 -614 0
-581 -474 -614 0
-581 -532 -614 0
-581 -533 -614 0
-581 -635 -614 0
-581 -636 -614 0
-581 -637 -614 0
-581 -638 -614 0
-581 473 474 532 533 635 636 637 638 614 0
-587 614 0
-570 -460 -614 0
-570 -467 -614 0
-570 -474 -614 0
-570 -461 -614 0
-570 -468 -614 0
-570 -475 -614 0
-570 -519 -614 0
-570 -526 -614 0
-570 -533 -614 0
-570 -520 -614 0
-570 -527 -614 0
-570 -534 -614 0
-570 -626 -614 0
-570 -631 -614 0
-570 -636 -614 0
-570 -627 -614 0
-570 -632 -614 0
-570 -637 -614 0
-570 -628 -614 0
-570 -633 -614 0
-570 -638 -614 0
-570 460 467 474 461 468 475 519 526 533 520 527 534 626 631 636 627 632 637 628 633 638 614 0
-576 -467 -614 0
-576 -474 -614 0
-576 -468 -614 0
-576 -475 -614 0
-576 -526 -614 0
-576 -533 -614 0
-576 -527 -614 0
-576 -534 -614 0
-576 -631 -614 0
-576 -636 -614 0
-576 -632 -614 0
-576 -637 -614 0
-576 -633 -614 0
-576 -638 -614 0
-576 467 474 468 475 526 533 527 534 631 636 632 637 633 638 614 0
-582 -474 -614 0
-582 -475 -614 0
-582 -533 -614 0
-582 -534 -614 0
-582 -636 -614 0
-582 -637 -614 0
-582 -638 -614 0
-582 474 475 533 534 636 637 638 614 0
-588 614 0
-571 -461 -614 0
-571 -468 -614 0
-571 -475 -614 0
-571 -462 -614 0
-571 -469 -614 0
-571 -476 -614 0
-571 -520 -614 0
-571 -527 -614 0
-571 -534 -614 0
-571 -521 -614 0
-571 -528 -614 0
-571 -535 -614 0
-571 -627 -614 0
-571 -632 -614 0
-571 -637 -614 0
-571 -628 -614 0
-571 -633 -614 0
-571 -638 -614 0
-571 461 468 475 462 469 476 520 527 534 521 528 535 627 632 637 628 633 638 614 0
-577 -468 -614 0
-577 -475 -614 0
-577 -469 -614 0
-577 -476 -614 0
-577 -527 -614 0
-577 -534 -614 0
-577 -528 -614 0
-577 -535 -614 0
-577 -632 -614 0
-577 -637 -614 0
-577 -633 -614 0
-577 -638 -614 0
-577 468 475 469 476 527 534 528 535 632 637 633 638 614 0
-583 -475 -614 0
-583 -476 -614 0
-583 -534 -614 0
-583 -535 -614 0
-583 -637 -614 0
-583 -638 -614 0
-583 475 476 534 535 637 638 614 0
-589 614 0
-620 -457 -663 0
-620 -464 -663 0
-620 -471 -663 0
-620 -458 -663 0
-620 -465 -663 0
-620 -472 -663 0
-620 -459 -663 0
-620 -466 -663 0
-620 -473 -663 0
-620 -516 -663 0
-620 -523 -663 0
-620 -530 -663 0
-620 -517 -663 0
-620 -524 -663 0
-620 -531 -663 0
-620 -518 -663 0
-620 -525 -663 0
-620 -532 -663 0
-620 -573 -663 0
-620 -579 -663 0
-620 -585 -663 0
-620 -574 -663 0
-620 -580 -663 0
-620 -586 -663 0
-620 -575 -663 0
-620 -581 -663 0
-620 -587 -663 0
-620 457 464 471 458 465 472 459 466 473 516 523 530 517 524 531 518 525 532 573 579 585 574 580 586 575 581 587 663 0
-625 -464 -663 0
-625 -471 -663 0
-625 -465 -663 0
-625 -472 -663 0
-625 -466 -663 0
-625 -473 -663 0
-625 -523 -663 0
-625 -530 -663 0
-625 -524 -663 0
-625 -531 -663 0
-625 -525 -663 0
-625 -532 -663 0
-625 -579 -663 0
-625 -585 -663 0
-625 -580 -663 0
-625 -586 -663 0
-625 -581 -663 0
-625 -587 -663 0
-625 464 471 465 472 466 473 523 530 524 531 525 532 579 585 580 586 581 587 663 0
-630 -471 -663 0
-630 -472 -663 0
-630 -473 -663 0
-630 -530 -663 0
-630 -531 -663 0
-630 -532 -663 0
-630 -585 -663 0
-630 -586 -663 0
-630 -587 -663 0
-630 471 472 473 530 531 532 585 586 587 663 0
-635 663 0
-621 -458 -663 0
-621 -465 -663 0
-621 -472 -663 0
-621 -459 -663 0
-621 -466 -663 0
-621 -473 -663 0
-621 -460 -663 0
-621 -467 -663 0
-621 -474 -663 0
-621 -517 -663 0
-621 -524 -663 0
-621 -531 -663 0
-621 -518 -663 0
-621 -525 -663 0
-621 -532 -663 0
-621 -519 -663 0
-621 -526 -663 0
-621 -533 -663 0
-621 -573 -663 0
-621 -579 -663 0
-621 -585 -663 0
-621 -574 -663 0
-621 -580 -663 0
-621 -586 -663 0
-621 -575 -663 0
-621 -581 -663 0
-621 -587 -663 0
-621 -576 -663 0
-621 -582 -663 0
-621 -588 -663 0
-621 458 465 472 459 466 473 460 467 474 517 524 531 518 525 532 519 526 533 573 579 585 574 580 586 575 581 587 576 582 588 663 0
-626 -465 -663 0
-626 -472 -663 0
-626 -466 -663 0
-626 -473 -663 0
-626 -467 -663 0
-626 -474 -663 0
-626 -524 -663 0
-626 -531 -663 0
-626 -525 -663 0
-626 -532 -663 0
-626 -526 -663 0
-626 -533 -663 0
-626 -579 -663 0
-626 -585 -663 0
-626 -580 -663 0
-626 -586 -663 0
-626 -581 -663 0
-626 -587 -663 0
-626 -582 -663 0
-626 -588 -663 0
-626 465 472 466 473 467 474 524 531 525 532 526 533 579 585 580 586 581 587 582 588 663 0
-631 -472 -663 0
-631 -473 -663 0
-631 -474 -663 0
-631 -531 -663 0
-631 -532 -663 0
-631 -533 -663 0
-631 -585 -663 0
-631 -586 -663 0
-631 -587 -663 0
-631 -588 -663 0
-631 472 473 474 531 532 533 585 586 587 588 663 0
-636 663 0
-622 -459 -663 0
-622 -466 -663 0
-622 -473 -663 0
-622 -460 -663 0
-622 -467 -663 0
-622 -474 -663 0
-622 -461 -663 0
-622 -468 -663 0
-622 -475 -663 0
-622 -518 -663 0
-622 -525 -663 0
-622 -532 -663 0
-622 -519 -663 0
-622 -526 -663 0
-622 -533 -663 0
-622 -520 -663 0
-622 -527 -663 0
-622 -534 -663 0
-622 -574 -663 0
-622 -580 -663 0
-622 -586 -663 0
-622 -575 -663 0
-622 -581 -663 0
-622 -587 -663 0
-622 -576 -663 0
-622 -582 -663 0
-622 -588 -663 0
-622 -577 -663 0
-622 -583 -663 0
-622 -589 -663 0
-622 459 466 473 460 467 474 461 468 475 518 525 532 519 526 533 520 527 534 574 580 586 575 581 587 576 582 588 577 583 589 663 0
-627 -466 -663 0
-627 -473 -663 0
-627 -467 -663 0
-627 -474 -663 0
-627 -468 -663 0
-627 -475 -663 0
-627 -525 -663 0
-627 -532 -663 0
-627 -526 -663 0
-627 -533 -663 0
-627 -527 -663 0
-627 -534 -663 0
-627 -580 -663 0
-627 -586 -663 0
-627 -581 -663 0
-627 -587 -663 0
-627 -582 -663 0
-627 -588 -663 0
-627 -583 -663 0
-627 -589 -663 0
-627 466 473 467 474 468 475 525 532 526 533 527 534 580 586 581 587 582 588 583 589 663 0
-632 -473 -663 0
-632 -474 -663 0
-632 -475 -663 0
-632 -532 -663 0
-632 -533 -663 0
-632 -534 -663 0
-632 -586 -663 0
-632 -587 -663 0
-632 -588 -663 0
-632 -589 -663 0
-632 473 474 475 532 533 534 586 587 588 589 663 0
-637 663 0
-623 -460 -663 0
-623 -467 -663 0
-623 -474 -663 0
-623 -461 -663 0
-623 -468 -663 0
-623 -475 -663 0
-623 -462 -663 0
-623 -469 -663 0
-623 -476 -663 0
-623 -519 -663 0
-623 -526 -663 0
-623 -533 -663 0
-623 -520 -663 0
-623 -527 -663 0
-623 -534 -663 0
-623 -521 -663 0
-623 -528 -663 0
-623 -535 -663 0
-623 -575 -663 0
-623 -581 -663 0
-623 -587 -663 0
-623 -576 -663 0
-623 -582 -663 0
-623 -588 -663 0
-623 -577 -663 0
-623 -583 -663 0
-623 -589 -663 0
-623 460 467 474 461 468 475 462 469 476 519 526 533 520 527 534 521 528 535 575 581 587 576 582 588 577 583 589 663 0
-628 -467 -663 0
-628 -474 -663 0
-628 -468 -663 0
-628 -475 -663 0
-628 -469 -663 0
-628 -476 -663 0
-628 -526 -663 0
-628 -533 -663 0
-628 -527 -663 0
-628 -534 -663 0
-628 -528 -663 0
-628 -535 -663 0
-628 -581 -663 0
-628 -587 -663 0
-628 -582 -663 0
-628 -588 -663 0
-628 -583 -663 0
-628 -589 -663 0
-628 467 474 468 475 469 476 526 533 527 534 528 535 581 587 582 588 583 589 663 0
-633 -474 -663 0
-633 -475 -663 0
-633 -476 -663 0
-633 -533 -663 0
-633 -534 -663 0
-633 -535 -663 0
-633 -587 -663 0
-633 -588 -663 0
-633 -589 -663 0
-633 474 475 476 533 534 535 587 588 589 663 0
-638 663 0
-671 -737 -722 0
-671 -744 -722 0
-671 -751 -722 0
-671 -794 -722 0
-671 -800 -722 0
-671 -806 -722 0
-671 -846 -722 0
-671 -851 -722 0
-671 -856 -722 0
-671 737 744 751 794 800 806 846 851 856 722 0
-678 -744 -722 0
-678 -751 -722 0
-678 -800 -722 0
-678 -806 -722 0
-678 -851 -722 0
-678 -856 -722 0
-678 744 751 800 806 851 856 722 0
-685 -751 -722 0
-685 -806 -722 0
-685 -856 -722 0
-685 751 806 856 722 0
-692 722 0
-672 -738 -722 0
-672 -745 -722 0
-672 -752 -722 0
-672 -794 -722 0
-672 -800 -722 0
-672 -806 -722 0
-672 -795 -722 0
-672 -801 -722 0
-672 -807 -722 0
-672 -846 -722 0
-672 -851 -722 0
-672 -856 -722 0
-672 -847 -722 0
-672 -852 -722 0
-672 -857 -722 0
-672 738 745 752 794 800 806 795 801 807 846 851 856 847 852 857 722 0
-679 -745 -722 0
-679 -752 -722 0
-679 -800 -722 0
-679 -806 -722 0
-679 -801 -722 0
-679 -807 -722 0
-679 -851 -722 0
-679 -856 -722 0
-679 -852 -722 0
-679 -857 -722 0
-679 745 752 800 806 801 807 851 856 852 857 722 0
-686 -752 -722 0
-686 -806 -722 0
-686 -807 -722 0
-686 -856 -722 0
-686 -857 -722 0
-686 752 806 807 856 857 722 0
-693 722 0
-673 -739 -722 0
-673 -746 -722 0
-673 -753 -722 0
-673 -795 -722 0
-673 -801 -722 0
-673 -807 -722 0
-673 -796 -722 0
-673 -802 -722 0
-673 -808 -722 0
-673 -846 -722 0
-673 -851 -722 0
-673 -856 -722 0
-673 -847 -722 0
-673 -852 -722 0
-673 -857 -722 0
-673 -848 -722 0
-673 -853 -722 0
-673 -858 -722 0
-673 739 746 753 795 801 807 796 802 808 846 851 856 847 852 857 848 853 858 722 0
-680 -746 -722 0
-680 -753 -722 0
-680 -801 -722 0
-680 -807 -722 0
-680 -802 -722 0
-680 -808 -722 0
-680 -851 -722 0
-680 -856 -722 0
-680 -852 -722 0
-680 -857 -722 0
-680 -853 -722 0
-680 -858 -722 0
-680 746 753 801 807 802 808 851 856 852 857 853 858 722 0
-687 -753 -722 0
-687 -807 -722 0
-687 -808 -722 0
-687 -856 -722 0
-687 -857 -722 0
-687 -858 -722 0
-687 753 807 808 856 857 858 722 0
-694 722 0
-674 -740 -722 0
-674 -747 -722 0
-674 -754 -722 0
-674 -796 -722 0
-674 -802 -722 0
-674 -808 -722 0
-674 -797 -722 0
-674 -803 -722 0
-674 -809 -722 0
-674 -847 -722 0
-674 -852 -722 0
-674 -857 -722 0
-674 -848 -722 0
-674 -853 -722 0
-674 -858 -722 0
-674 -849 -722 0
-674 -854 -722 0
-674 -859 -722 0
-674 740 747 754 796 802 808 797 803 809 847 852 857 848 853 858 849 854 859 722 0
-681 -747 -722 0
-681 -754 -722 0
-681 -802 -722 0
-681 -808 -722 0
-681 -803 -722 0
-681 -809 -722 0
-681 -852 -722 0
-681 -857 -722 0
-681 -853 -722 0
-681 -858 -722 0
-681 -854 -722 0
-681 -859 -722 0
-681 747 754 802 808 803 809 852 857 853 858 854 859 722 0
-688 -754 -722 0
-688 -808 -722 0
-688 -809 -722 0
-688 -857 -722 0
-688 -858 -722 0
-688 -859 -722 0
-688 754 808 809 857 858 859 722 0
-695 722 0
-675 -741 -722 0
-675 -748 -722 0
-675 -755 -722 0
-675 -797 -722 0
-675 -803 -722 0
-675 -809 -722 0
-675 -798 -722 0
-675 -804 -722 0
-675 -810 -722 0
-675 -848 -722 0
-675 -853 -722 0
-675 -858 -722 0
-675 -849 -722 0
-675 -854 -722 0
-675 -859 -722 0
-675 741 748 755 797 803 809 798 804 810 848 853 858 849 854 859 722 0
-682 -748 -722 0
-682 -755 -722 0
-682 -803 -722 0
-682 -809 -722 0
-682 -804 -722 0
-682 -810 -722 0
-682 -853 -722 0
-682 -858 -722 0
-682 -854 -722 0
-682 -859 -722 0
-682 748 755 803 809 804 810 853 858 854 859 722 0
-689 -755 -722 0
-689 -809 -722 0
-689 -810 -722 0
-689 -858 -722 0
-689 -859 -722 0
-689 755 809 810 858 859 722 0
-696 722 0
-676 -742 -722 0
-676 -749 -722 0
-676 -756 -722 0
-676 -798 -722 0
-676 -804 -722 0
-676 -810 -722 0
-676 -849 -722 0
-676 -854 -722 0
-676 -859 -722 0
-676 742 749 756 798 804 810 849 854 859 722 0
-683 -749 -722 0
-683 -756 -722 0
-683 -804 -722 0
-683 -810 -722 0
-683 -854 -722 0
-683 -859 -722 0
-683 749 756 804 810 854 859 722 0
-690 -756 -722 0
-690 -810 -722 0
-690 -859 -722 0
-690 756 810 859 722 0
-697 722 0
-730 -678 -781 0
-730 -685 -781 0
-730 -692 -781 0
-730 -794 -781 0
-730 -800 -781 0
-730 -806 -781 0
-730 -846 -781 0
-730 -851 -781 0
-730 -856 -781 0
-730 678 685 692 794 800 806 846 851 856 781 0
-737 -685 -781 0
-737 -692 -781 0
-737 -800 -781 0
-737 -806 -781 0
-737 -851 -781 0
-737 -856 -781 0
-737 685 692 800 806 851 856 781 0
-744 -692 -781 0
-744 -806 -781 0
-744 -856 -781 0
-744 692 806 856 781 0
-751 781 0
-731 -679 -781 0
-731 -686 -781 0
-731 -693 -781 0
-731 -794 -781 0
-731 -800 -781 0
-731 -806 -781 0
-731 -795 -781 0
-731 -801 -781 0
-731 -807 -781 0
-731 -846 -781 0
-731 -851 -781 0
-731 -856 -781 0
-731 -847 -781 0
-731 -852 -781 0
-731 -857 -781 0
-731 679 686 693 794 800 806 795 801 807 846 851 856 847 852 857 781 0
-738 -686 -781 0
-738 -693 -781 0
-738 -800 -781 0
-738 -806 -781 0
-738 -801 -781 0
-738 -807 -781 0
-738 -851 -781 0
-738 -856 -781 0
-738 -852 -781 0
-738 -857 -781 0
-738 686 693 800 806 801 807 851 856 852 857 781 0
-745 -693 -781 0
-745 -806 -781 0
-745 -807 -781 0
-745 -856 -781 0
-745 -857 -781 0
-745 693 806 807 856 857 781 0
-752 781 0
-732 -680 -781 0
-732 -687 -781 0
-732 -694 -781 0
-732 -795 -781 0
-732 -801 -781 0
-732 -807 -781 0
-732 -796 -781 0
-732 -802 -781 0
-732 -808 -781 0
-732 -846 -781 0
-732 -851 -781 0
-732 -856 -781 0
-732 -847 -781 0
-732 -852 -781 0
-732 -857 -781 0
-732 -848 -781 0
-732 -853 -781 0
-732 -858 -781 0
-732 680 687 694 795 801 807 796 802 808 846 851 856 847 852 857 848 853 858 781 0
-739 -687 -781 0
-739 -694 -781 0
-739 -801 -781 0
-739 -807 -781 0
-739 -802 -781 0
-739 -808 -781 0
-739 -851 -781 0
-739 -856 -781 0
-739 -852 -781 0
-739 -857 -781 0
-739 -853 -781 0
-739 -858 -781 0
-739 687 694 801 807 802 808 851 856 852 857 853 858 781 0
-746 -694 -781 0
-746 -807 -781 0
-746 -808 -781 0
-746 -856 -781 0
-746 -857 -781 0
-746 -858 -781 0
-746 694 807 808 856 857 858 781 0
-753 781 0
-733 -681 -781 0
-733 -688 -781 0
-733 -695 -781 0
-733 -796 -781 0
-733 -802 -781 0
-733 -808 -781 0
-733 -797 -781 0
-733 -803 -781 0
-733 -809 -781 0
-733 -847 -781 0
-733 -852 -781 0
-733 -857 -781 0
-733 -848 -781 0
-733 -853 -781 0
-733 -858 -781 0
-733 -849 -781 0
-733 -854 -781 0
-733 -859 -781 0
-733 681 688 695 796 802 808 797 803 809 847 852 857 848 853 858 849 854 859 781 0
-740 -688 -781 0
-740 -695 -781 0
-740 -802 -781 0
-740 -808 -781 0
-740 -803 -781 0
-740 -809 -781 0
-740 -852 -781 0
-740 -857 -781 0
-740 -853 -781 0
-740 -858 -781 0
-740 -854 -781 0
-740 -859 -781 0
-740 688 695 802 808 803 809 852 857 853 858 854 859 781 0
-747 -695 -781 0
-747 -808 -781 0
-747 -809 -781 0
-747 -857 -781 0
-747 -858 -781 0
-747 -859 -781 0
-747 695 808 809 857 858 859 781 0
-754 781 0
-734 -682 -781 0
-734 -689 -781 0
-734 -696 -781 0
-734 -797 -781 0
-734 -803 -781 0
-734 -809 -781 0
-734 -798 -781 0
-734 -804 -781 0
-734 -810 -781 0
-734 -848 -781 0
-734 -853 -781 0
-734 -858 -781 0
-734 -849 -781 0
-734 -854 -781 0
-734 -859 -781 0
-734 682 689 696 797 803 809 798 804 810 848 853 858 849 854 859 781 0
-741 -689 -781 0
-741 -696 -781 0
-741 -803 -781 0
-741 -809 -781 0
-741 -804 -781 0
-741 -810 -781 0
-741 -853 -781 0
-741 -858 -781 0
-741 -854 -781 0
-741 -859 -781 0
-741 689 696 803 809 804 810 853 858 854 859 781 0
-748 -696 -781 0
-748 -809 -781 0
-748 -810 -781 0
-748 -858 -781 0
-748 -859 -781 0
-748 696 809 810 858 859 781 0
-755 781 0
-735 -683 -781 0
-735 -690 -781 0
-735 -697 -781 0
-735 -798 -781 0
-735 -804 -781 0
-735 -810 -781 0
-735 -849 -781 0
-735 -854 -781 0
-735 -859 -781 0
-735 683 690 697 798 804 810 849 854 859 781 0
-742 -690 -781 0
-742 -697 -781 0
-742 -804 -781 0
-742 -810 -781 0
-742 -854 -781 0
-742 -859 -781 0
-742 690 697 804 810 854 859 781 0
-749 -697 -781 0
-749 -810 -781 0
-749 -859 -781 0
-749 697 810 859 781 0
-756 781 0
-788 -678 -835 0
-788 -685 -835 0
-788 -692 -835 0
-788 -679 -835 0
-788 -686 -835 0
-788 -693 -835 0
-788 -737 -835 0
-788 -744 -835 0
-788 -751 -835 0
-788 -738 -835 0
-788 -745 -835 0
-788 -752 -835 0
-788 -846 -835 0
-788 -851 -835 0
-788 -856 -835 0
-788 -847 -835 0
-788 -852 -835 0
-788 -857 -835 0
-788 678 685 692 679 686 693 737 744 751 738 745 752 846 851 856 847 852 857 835 0
-794 -685 -835 0
-794 -692 -835 0
-794 -686 -835 0
-794 -693 -835 0
-794 -744 -835 0
-794 -751 -835 0
-794 -745 -835 0
-794 -752 -835 0
-794 -851 -835 0
-794 -856 -835 0
-794 -852 -835 0
-794 -857 -835 0
-794 685 692 686 693 744 751 745 752 851 856 852 857 835 0
-800 -692 -835 0
-800 -693 -835 0
-800 -751 -835 0
-800 -752 -835 0
-800 -856 -835 0
-800 -857 -835 0
-800 692 693 751 752 856 857 835 0
-806 835 0
-789 -679 -835 0
-789 -686 -835 0
-789 -693 -835 0
-789 -680 -835 0
-789 -687 -835 0
-789 -694 -835 0
-789 -738 -835 0
-789 -745 -835 0
-789 -752 -835 0
-789 -739 -835 0
-789 -746 -835 0
-789 -753 -835 0
-789 -846 -835 0
-789 -851 -835 0
-789 -856 -835 0
-789 -847 -835 0
-789 -852 -835 0
-789 -857 -835 0
-789 -848 -835 0
-789 -853 -835 0
-789 -858 -835 0
-789 679 686 693 680 687 694 738 745 752 739 746 753 846 851 856 847 852 857 848 853 858 835 0
-795 -686 -835 0
-795 -693 -835 0
-795 -687 -835 0
-795 -694 -835 0
-795 -745 -835 0
-795 -752 -835 0
-795 -746 -835 0
-795 -753 -835 0
-795 -851 -835 0
-795 -856 -835 0
-795 -852 -835 0
-795 -857 -835 0
-795 -853 -835 0
-795 -858 -835 0
-795 686 693 687 694 745 752 746 753 851 856 852 857 853 858 835 0
-801 -693 -835 0
-801 -694 -835 0
-801 -752 -835 0
-801 -753 -835 0
-801 -856 -835 0
-801 -857 -835 0
-801 -858 -835 0
-801 693 694 752 753 856 857 858 835 0
-807 835 0
-790 -680 -835 0
-790 -687 -835 0
-790 -694 -835 0
-790 -681 -835 0
-790 -688 -835 0
-790 -695 -835 0
-790 -739 -835 0
-790 -746 -835 0
-790 -753 -835 0
-790 -740 -835 0
-790 -747 -835 0
-790 -754 -835 0
-790 -846 -835 0
-790 -851 -835 0
-790 -856 -835 0
-790 -847 -835 0
-790 -852 -835 0
-790 -857 -835 0
-790 -848 -835 0
-790 -853 -835 0
-790 -858 -835 0
-790 -849 -835 0
-790 -854 -835 0
-790 -859 -835 0
-790 680 687 694 681 688 695 739 746 753 740 747 754 846 851 856 847 852 857 848 853 858 849 854 859 835 0
-796 -687 -835 0
-796 -694 -835 0
-796 -688 -835 0
-796 -695 -835 0
-796 -746 -835 0
-796 -753 -835 0
-796 -747 -835 0
-796 -754 -835 0
-796 -851 -835 0
-796 -856 -835 0
-796 -852 -835 0
-796 -857 -835 0
-796 -853 -835 0
-796 -858 -835 0
-796 -854 -835 0
-796 -859 -835 0
-796 687 694 688 695 746 753 747 754 851 856 852 857 853 858 854 859 835 0
-802 -694 -835 0
-802 -695 -835 0
-802 -753 -835 0
-802 -754 -835 0
-802 -856 -835 0
-802 -857 -835 0
-802 -858 -835 0
-802 -859 -835 0
-802 694 695 753 754 856 857 858 859 835 0
-808 835 0
-791 -681 -835 0
-791 -688 -835 0
-791 -695 -835 0
-791 -682 -835 0
-791 -689 -835 0
-791 -696 -835 0
-791 -740 -835 0
-791 -747 -835 0
-791 -754 -835 0
-791 -741 -835 0
-791 -748 -835 0
-791 -755 -835 0
-791 -847 -835 0
-791 -852 -835 0
-791 -857 -835 0
-791 -848 -835 0
-791 -853 -835 0
-791 -858 -835 0
-791 -849 -835 0
-791 -854 -835 0
-791 -859 -835 0
-791 681 688 695 682 689 696 740 747 754 741 748 755 847 852 857 848 853 858 849 854 859 835 0
-797 -688 -835 0
-797 -695 -835 0
-797 -689 -835 0
-797 -696 -835 0
-797 -747 -835 0
-797 -754 -835 0
-797 -748 -835 0
-797 -755 -835 0
-797 -852 -835 0
-797 -857 -835 0
-797 -853 -835 0
-797 -858 -835 0
-797 -854 -835 0
-797 -859 -835 0
-797 688 695 689 696 747 754 748 755 852 857 853 858 854 859 835 0
-803 -695 -835 0
-803 -696 -835 0
-803 -754 -835 0
-803 -755 -835 0
-803 -857 -835 0
-803 -858 -835 0
-803 -859 -835 0
-803 695 696 754 755 857 858 859 835 0
-809 835 0
-792 -682 -835 0
-792 -689 -835 0
-792 -696 -835 0
-792 -683 -835 0
-792 -690 -835 0
-792 -697 -835 0
-792 -741 -835 0
-792 -748 -835 0
-792 -755 -835 0
-792 -742 -835 0
-792 -749 -835 0
-792 -756 -835 0
-792 -848 -835 0
-792 -853 -835 0
-792 -858 -835 0
-792 -849 -835 0
-792 -854 -835 0
-792 -859 -835 0
-792 682 689 696 683 690 697 741 748 755 742 749 756 848 853 858 849 854 859 835 0
-798 -689 -835 0
-798 -696 -835 0
-798 -690 -835 0
-798 -697 -835 0
-798 -748 -835 0
-798 -755 -835 0
-798 -749 -835 0
-798 -756 -835 0
-798 -853 -835 0
-798 -858 -835 0
-798 -854 -835 0
-798 -859 -835 0
-798 689 696 690 697 748 755 749 756 853 858 854 859 835 0
-804 -696 -835 0
-804 -697 -835 0
-804 -755 -835 0
-804 -756 -835 0
-804 -858 -835 0
-804 -859 -835 0
-804 696 697 755 756 858 859 835 0
-810 835 0
-841 -678 -884 0
-841 -685 -884 0
-841 -692 -884 0
-841 -679 -884 0
-841 -686 -884 0
-841 -693 -884 0
-841 -680 -884 0
-841 -687 -884 0
-841 -694 -884 0
-841 -737 -884 0
-841 -744 -884 0
-841 -751 -884 0
-841 -738 -884 0
-841 -745 -884 0
-841 -752 -884 0
-841 -739 -884 0
-841 -746 -884 0
-841 -753 -884 0
-841 -794 -884 0
-841 -800 -884 0
-841 -806 -884 0
-841 -795 -884 0
-841 -801 -884 0
-841 -807 -884 0
-841 -796 -884 0
-841 -802 -884 0
-841 -808 -884 0
-841 678 685 692 679 686 693 680 687 694 737 744 751 738 745 752 739 746 753 794 800 806 795 801 807 796 802 808 884 0
-846 -685 -884 0
-846 -692 -884 0
-846 -686 -884 0
-846 -693 -884 0
-846 -687 -884 0
-846 -694 -884 0
-846 -744 -884 0
-846 -751 -884 0
-846 -745 -884 0
-846 -752 -884 0
-846 -746 -884 0
-846 -753 -884 0
-846 -800 -884 0
-846 -806 -884 0
-846 -801 -884 0
-846 -807 -884 0
-846 -802 -884 0
-846 -808 -884 0
-846 685 692 686 693 687 694 744 751 745 752 746 753 800 806 801 807 802 808 884 0
-851 -692 -884 0
-851 -693 -884 0
-851 -694 -884 0
-851 -751 -884 0
-851 -752 -884 0
-851 -753 -884 0
-851 -806 -884 0
-851 -807 -884 0
-851 -808 -884 0
-851 692 693 694 751 752 753 806 807 808 884 0
-856 884 0
-842 -679 -884 0
-842 -686 -884 0
-842 -693 -884 0
-842 -680 -884 0
-842 -687 -884 0
-842 -694 -884 0
-842 -681 -884 0
-842 -688 -884 0
-842 -695 -884 0
-842 -738 -884 0
-842 -745 -884 0
-842 -752 -884 0
-842 -739 -884 0
-842 -746 -884 0
-842 -753 -884 0
-842 -740 -884 0
-842 -747 -884 0
-842 -754 -884 0
-842 -794 -884 0
-842 -800 -884 0
-842 -806 -884 0
-842 -795 -884 0
-842 -801 -884 0
-842 -807 -884 0
-842 -796 -884 0
-842 -802 -884 0
-842 -808 -884 0
-842 -797 -884 0
-842 -803 -884 0
-842 -809 -884 0
-842 679 686 693 680 687 694 681 688 695 738 745 752 739 746 753 740 747 754 794 800 806 795 801 807 796 802 808 797 803 809 884 0
-847 -686 -884 0
-847 -693 -884 0
-847 -687 -884 0
-847 -694 -884 0
-847 -688 -884 0
-847 -695 -884 0
-847 -745 -884 0
-847 -752 -884 0
-847 -746 -884 0
-847 -753 -884 0
-847 -747 -884 0
-847 -754 -884 0
-847 -800 -884 0
-847 -806 -884 0
-847 -801 -884 0
-847 -807 -884 0
-847 -802 -884 0
-847 -808 -884 0
-847 -803 -884 0
-847 -809 -884 0
-847 686 693 687 694 688 695 745 752 746 753 747 754 800 806 801 807 802 808 803 809 884 0
-852 -693 -884 0
-852 -694 -884 0
-852 -695 -884 0
-852 -752 -884 0
-852 -753 -884 0
-852 -754 -884 0
-852 -806 -884 0
-852 -807 -884 0
-852 -808 -884 0
-852 -809 -884 0
-852 693 694 695 752 753 754 806 807 808 809 884 0
-857 884 0
-843 -680 -884 0
-843 -687 -884 0
-843 -694 -884 0
-843 -681 -884 0
-843 -688 -884 0
-843 -695 -884 0
-843 -682 -884 0
-843 -689 -884 0
-843 -696 -884 0
-843 -739 -884 0
-843 -746 -884 0
-843 -753 -884 0
-843 -740 -884 0
-843 -747 -884 0
-843 -754 -884 0
-843 -741 -884 0
-843 -748 -884 0
-843 -755 -884 0
-843 -795 -884 0
-843 -801 -884 0
-843 -807 -884 0
-843 -796 -884 0
-843 -802 -884 0
-843 -808 -884 0
-843 -797 -884 0
-843 -803 -884 0
-843 -809 -884 0
-843 -798 -884 0
-843 -804 -884 0
-843 -810 -884 0
-843 680 687 694 681 688 695 682 689 696 739 746 753 740 747 754 741 748 755 795 801 807 796 802 808 797 803 809 798 804 810 884 0
-848 -687 -884 0
-848 -694 -884 0
-848 -688 -884 0
-848 -695 -884 0
-848 -689 -884 0
-848 -696 -884 0
-848 -746 -884 0
-848 -753 -884 0
-848 -747 -884 0
-848 -754 -884 0
-848 -748 -884 0
-848 -755 -884 0
-848 -801 -884 0
-848 -807 -884 0
-848 -802 -884 0
-848 -808 -884 0
-848 -803 -884 0
-848 -809 -884 0
-848 -804 -884 0
-848 -810 -884 0
-848 687 694 688 695 689 696 746 753 747 754 748 755 801 807 802 808 803 809 804 810 884 0
-853 -694 -884 0
-853 -695 -884 0
-853 -696 -884 0
-853 -753 -884 0
-853 -754 -884 0
-853 -755 -884 0
-853 -807 -884 0
-853 -808 -884 0
-853 -809 -884 0
-853 -810 -884 0
-853 694 695 696 753 754 755 807 808 809 810 884 0
-858 884 0
-844 -681 -884 0
-844 -688 -884 0
-844 -695 -884 0
-844 -682 -884 0
-844 -689 -884 0
-844 -696 -884 0
-844 -683 -884 0
-844 -690 -884 0
-844 -697 -884 0
-844 -740 -884 0
-844 -747 -884 0
-844 -754 -884 0
-844 -741 -884 0
-844 -748 -884 0
-844 -755 -884 0
-844 -742 -884 0
-844 -749 -884 0
-844 -756 -884 0
-844 -796 -884 0
-844 -802 -884 0
-844 -808 -884 0
-844 -797 -884 0
-844 -803 -884 0
-844 -809 -884 0
-844 -798 -884 0
-844 -804 -884 0
-844 -810 -884 0
-844 681 688 695 682 689 696 683 690 697 740 747 754 741 748 755 742 749 756 796 802 808 797 803 809 798 804 810 884 0
-849 -688 -884 0
-849 -695 -884 0
-849 -689 -884 0
-849 -696 -884 0
-849 -690 -884 0
-849 -697 -884 0
-849 -747 -884 0
-849 -754 -884 0
-849 -748 -884 0
-849 -755 -884 0
-849 -749 -884 0
-849 -756 -884 0
-849 -802 -884 0
-849 -808 -884 0
-849 -803 -884 0
-849 -809 -884 0
-849 -804 -884 0
-849 -810 -884 0
-849 688 695 689 696 690 697 747 754 748 755 749 756 802 808 803 809 804 810 884 0
-854 -695 -884 0
-854 -696 -884 0
-854 -697 -884 0
-854 -754 -884 0
-854 -755 -884 0
-854 -756 -884 0
-854 -808 -884 0
-854 -809 -884 0
-854 -810 -884 0
-854 695 696 697 754 755 756 808 809 810 884 0
-859 884 0
-892 -958 -943 0
-892 -965 -943 0
-892 -972 -943 0
-892 -1015 -943 0
-892 -1021 -943 0
-892 -1027 -943 0
-892 -1067 -943 0
-892 -1072 -943 0
-892 -1077 -943 0
-892 958 965 972 1015 1021 1027 1067 1072 1077 943 0
-899 -965 -943 0
-899 -972 -943 0
-899 -1021 -943 0
-899 -1027 -943 0
-899 -1072 -943 0
-899 -1077 -943 0
-899 965 972 1021 1027 1072 1077 943 0
-906 -972 -943 0
-906 -1027 -943 0
-906 -1077 -943 0
-906 972 1027 1077 943 0
-913 943 0
-893 -959 -943 0
-893 -966 -943 0
-893 -973 -943 0
-893 -1015 -943 0
-893 -1021 -943 0
-893 -1027 -943 0
-893 -1016 -943 0
-893 -1022 -943 0
-893 -1028 -943 0
-893 -1067 -943 0
-893 -1072 -943 0
-893 -1077 -943 0
-893 -1068 -943 0
-893 -1073 -943 0
-893 -1078 -943 0
-893 959 966 973 1015 1021 1027 1016 1022 1028 1067 1072 1077 1068 1073 1078 943 0
-900 -966 -943 0
-900 -973 -943 0
-900 -1021 -943 0
-900 -1027 -943 0
-900 -1022 -943 0
-900 -1028 -943 0
-900 -1072 -943 0
-900 -1077 -943 0
-900 -1073 -943 0
-900 -1078 -943 0
-900 966 973 1021 1027 1022 1028 1072 1077 1073 1078 943 0
-907 -973 -943 0
-907 -1027 -943 0
-907 -1028 -943 0
-907 -1077 -943 0
-907 -1078 -943 0
-907 973 1027 1028 1077 1078 943 0
-914 943 0
-894 -960 -943 0
-894 -967 -943 0
-894 -974 -943 0
-894 -1016 -943 0
-894 -1022 -943 0
-894 -1028 -943 0
-894 -1017 -943 0
-894 -1023 -943 0
-894 -1029 -943 0
-894 -1067 -943 0
-894 -1072 -943 0
-894 -1077 -943 0
-894 -1068 -943 0
-894 -1073 -943 0
-894 -1078 -943 0
-894 -1069 -943 0
-894 -1074 -943 0
-894 -1079 -943 0
-894 960 967 974 1016 1022 1028 1017 1023 1029 1067 1072 1077 1068 1073 1078 1069 1074 1079 943 0
-901 -967 -943 0
-901 -974 -943 0
-901 -1022 -943 0
-901 -1028 -943 0
-901 -1023 -943 0
-901 -1029 -943 0
-901 -1072 -943 0
-901 -1077 -943 0
-901 -1073 -943 0
-901 -1078 -943 0
-901 -1074 -943 0
-901 -1079 -943 0
-901 967 974 1022 1028 1023 1029 1072 1077 1073 1078 1074 1079 943 0
-908 -974 -943 0
-908 -1028 -943 0
-908 -1029 -943 0
-908 -1077 -943 0
-908 -1078 -943 0
-908 -1079 -943 0
-908 974 1028 1029 1077 1078 1079 943 0
-915 943 0
-895 -961 -943 0
-895 -968 -943 0
-895 -975 -943 0
-895 -1017 -943 0
-895 -1023 -943 0
-895 -1029 -943 0
-895 -1018 -943 0
-895 -1024 -943 0
-895 -1030 -943 0
-895 -1068 -943 0
-895 -1073 -943 0
-895 -1078 -943 0
-895 -1069 -943 0
-895 -1074 -943 0
-895 -1079 -943 0
-895 -1070 -943 0
-895 -1075 -943 0
-895 -1080 -943 0
-895 961 968 975 1017 1023 1029 1018 1024 1030 1068 1073 1078 1069 1074 1079 1070 1075 1080 943 0
-902 -968 -943 0
-902 -975 -943 0
-902 -1023 -943 0
-902 -1029 -943 0
-902 -1024 -943 0
-902 -1030 -943 0
-902 -1073 -943 0
-902 -1078 -943 0
-902 -1074 -943 0
-902 -1079 -943 0
-902 -1075 -943 0
-902 -1080 -943 0
-902 968 975 1023 1029 1024 1030 1073 1078 1074 1079 1075 1080 943 0
-909 -975 -943 0
-909 -1029 -943 0
-909 -1030 -943 0
-909 -1078 -943 0
-909 -1079 -943 0
-909 -1080 -943 0
-909 975 1029 1030 1078 1079 1080 943 0
-916 943 0
-896 -962 -943 0
-896 -969 -943 0
-896 -976 -943 0
-896 -1018 -943 0
-896 -1024 -943 0
-896 -1030 -943 0
-896 -1019 -943 0
-896 -1025 -943 0
-896 -1031 -943 0
-896 -1069 -943 0
-896 -1074 -943 0
-896 -1079 -943 0
-896 -1070 -943 0
-896 -1075 -943 0
-896 -1080 -943 0
-896 962 969 976 1018 1024 1030 1019 1025 1031 1069 1074 1079 1070 1075 1080 943 0
-903 -969 -943 0
-903 -976 -943 0
-903 -1024 -943 0
-903 -1030 -943 0
-903 -1025 -943 0
-903 -1031 -943 0
-903 -1074 -943 0
-903 -1079 -943 0
-903 -1075 -943 0
-903 -1080 -943 0
-903 969 976 1024 1030 1025 1031 1074 1079 1075 1080 943 0
-910 -976 -943 0
-910 -1030 -943 0
-910 -1031 -943 0
-910 -1079 -943 0
-910 -1080 -943 0
-910 976 1030 1031 1079 1080 943 0
-917 943 0
-897 -963 -943 0
-897 -970 -943 0
-897 -977 -943 0
-897 -1019 -943 0
-897 -1025 -943 0
-897 -1031 -943 0
-897 -1070 -943 0
-897 -1075 -943 0
-897 -1080 -943 0
-897 963 970 977 1019 1025 1031 1070 1075 1080 943 0
-904 -970 -943 0
-904 -977 -943 0
-904 -1025 -943 0
-904 -1031 -943 0
-904 -1075 -943 0
-904 -1080 -943 0
-904 970 977 1025 1031 1075 1080 943 0
-911 -977 -943 0
-911 -1031 -943 0
-911 -1080 -943 0
-911 977 1031 1080 943 0
-918 943 0
-951 -899 -1002 0
-951 -906 -1002 0
-951 -913 -1002 0
-951 -1015 -1002 0
-951 -1021 -1002 0
-951 -1027 -1002 0
-951 -1067 -1002 0
-951 -1072 -1002 0
-951 -1077 -1002 0
-951 899 906 913 1015 1021 1027 1067 1072 1077 1002 0
-958 -906 -1002 0
-958 -913 -1002 0
-958 -1021 -1002 0
-958 -1027 -1002 0
-958 -1072 -1002 0
-958 -1077 -1002 0
-958 906 913 1021 1027 1072 1077 1002 0
-965 -913 -1002 0
-965 -1027 -1002 0
-965 -1077 -1002 0
-965 913 1027 1077 1002 0
-972 1002 0
-952 -900 -1002 0
-952 -907 -1002 0
-952 -914 -1002 0
-952 -1015 -1002 0
-952 -1021 -1002 0
-952 -1027 -1002 0
-952 -1016 -1002 0
-952 -1022 -1002 0
-952 -1028 -1002 0
-952 -1067 -1002 0
-952 -1072 -1002 0
-952 -1077 -1002 0
-952 -1068 -1002 0
-952 -1073 -1002 0
-952 -1078 -1002 0
-952 900 907 914 1015 1021 1027 1016 1022 1028 1067 1072 1077 1068 1073 1078 1002 0
-959 -907 -1002 0
-959 -914 -1002 0
-959 -1021 -1002 0
-959 -1027 -1002 0
-959 -1022 -1002 0
-959 -1028 -1002 0
-959 -1072 -1002 0
-959 -1077 -1002 0
-959 -1073 -1002 0
-959 -1078 -1002 0
-959 907 914 1021 1027 1022 1028 1072 1077 1073 1078 1002 0
-966 -914 -1002 0
-966 -1027 -1002 0
-966 -1028 -1002 0
-966 -1077 -1002 0
-966 -1078 -1002 0
-966 914 1027 1028 1077 1078 1002 0
-973 1002 0
-953 -901 -1002 0
-953 -908 -1002 0
-953 -915 -1002 0
-953 -1016 -1002 0
-953 -1022 -1002 0
-953 -1028 -1002 0
-953 -1017 -1002 0
-953 -1023 -1002 0
-953 -1029 -1002 0
-953 -1067 -1002 0
-953 -1072 -1002 0
-953 -1077 -1002 0
-953 -1068 -1002 0
-953 -1073 -1002 0
-953 -1078 -1002 0
-953 -1069 -1002 0
-953 -1074 -1002 0
-953 -1079 -1002 0
-953 901 908 915 1016 1022 1028 1017 1023 1029 1067 1072 1077 1068 1073 1078 1069 1074 1079 1002 0
-960 -908 -1002 0
-960 -915 -1002 0
-960 -1022 -1002 0
-960 -1028 -1002 0
-960 -1023 -1002 0
-960 -1029 -1002 0
-960 -1072 -1002 0
-960 -1077 -1002 0
-960 -1073 -1002 0
-960 -1078 -1002 0
-960 -1074 -1002 0
-960 -1079 -1002 0
-960 908 915 1022 1028 1023 1029 1072 1077 1073 1078 1074 1079 1002 0
-967 -915 -1002 0
-967 -1028 -1002 0
-967 -1029 -1002 0
-967 -1077 -1002 0
-967 -1078 -1002 0
-967 -1079 -1002 0
-967 915 1028 1029 1077 1078 1079 1002 0
-974 1002 0
-954 -902 -1002 0
-954 -909 -1002 0
-954 -916 -1002 0
-954 -1017 -1002 0
-954 -1023 -1002 0
-954 -1029 -1002 0
-954 -1018 -1002 0
-954 -1024 -1002 0
-954 -1030 -1002 0
-954 -1068 -1002 0
-954 -1073 -1002 0
-954 -1078 -1002 0
-954 -1069 -1002 0
-954 -1074 -1002 0
-954 -1079 -1002 0
-954 -1070 -1002 0
-954 -1075 -1002 0
-954 -1080 -1002 0
-954 902 909 916 1017 1023 1029 1018 1024 1030 1068 1073 1078 1069 1074 1079 1070 1075 1080 1002 0
-961 -909 -1002 0
-961 -916 -1002 0
-961 -1023 -1002 0
-961 -1029 -1002 0
-961 -1024 -1002 0
-961 -1030 -1002 0
-961 -1073 -1002 0
-961 -1078 -1002 0
-961 -1074 -1002 0
-961 -1079 -1002 0
-961 -1075 -1002 0
-961 -1080 -1002 0
-961 909 916 1023 1029 1024 1030 1073 1078 1074 1079 1075 1080 1002 0
-968 -916 -1002 0
-968 -1029 -1002 0
-968 -1030 -1002 0
-968 -1078 -1002 0
-968 -1079 -1002 0
-968 -1080 -1002 0
-968 916 1029 1030 1078 1079 1080 1002 0
-975 1002 0
-955 -903 -1002 0
-955 -910 -1002 0
-955 -917 -1002 0
-955 -1018 -1002 0
-955 -1024 -1002 0
-955 -1030 -1002 0
-955 -1019 -1002 0
-955 -1025 -1002 0
-955 -1031 -1002 0
-955 -1069 -1002 0
-955 -1074 -1002 0
-955 -1079 -1002 0
-955 -1070 -1002 0
-955 -1075 -1002 0
-955 -1080 -1002 0
-955 903 910 917 1018 1024 1030 1019 1025 1031 1069 1074 1079 1070 1075 1080 1002 0
-962 -910 -1002 0
-962 -917 -1002 0
-962 -1024 -1002 0
-962 -1030 -1002 0
-962 -1025 -1002 0
-962 -1031 -1002 0
-962 -1074 -1002 0
-962 -1079 -1002 0
-962 -1075 -1002 0
-962 -1080 -1002 0
-962 910 917 1024 1030 1025 1031 1074 1079 1075 1080 1002 0
-969 -917 -1002 0
-969 -1030 -1002 0
-969 -1031 -1002 0
-969 -1079 -1002 0
-969 -1080 -1002 0
-969 917 1030 1031 1079 1080 1002 0
-976 1002 0
-956 -904 -1002 0
-956 -911 -1002 0
-956 -918 -1002 0
-956 -1019 -1002 0
-956 -1025 -1002 0
-956 -1031 -1002 0
-956 -1070 -1002 0
-956 -1075 -1002 0
-956 -1080 -1002 0
-956 904 911 918 1019 1025 1031 1070 1075 1080 1002 0
-963 -911 -1002 0
-963 -918 -1002 0
-963 -1025 -1002 0
-963 -1031 -1002 0
-963 -1075 -1002 0
-963 -1080 -1002 0
-963 911 918 1025 1031 1075 1080 1002 0
-970 -918 -1002 0
-970 -1031 -1002 0
-970 -1080 -1002 0
-970 918 1031 1080 1002 0
-977 1002 0
-1009 -899 -1056 0
-1009 -906 -1056 0
-1009 -913 -1056 0
-1009 -900 -1056 0
-1009 -907 -1056 0
-1009 -914 -1056 0
-1009 -958 -1056 0
-1009 -965 -1056 0
-1009 -972 -1056 0
-1009 -959 -1056 0
-1009 -966 -1056 0
-1009 -973 -1056 0
-1009 -1067 -1056 0
-1009 -1072 -1056 0
-1009 -1077 -1056 0
-1009 -1068 -1056 0
-1009 -1073 -1056 0
-1009 -1078 -1056 0
-1009 899 906 913 900 907 914 958 965 972 959 966 973 1067 1072 1077 1068 1073 1078 1056 0
-1015 -906 -1056 0
-1015 -913 -1056 0
-1015 -907 -1056 0
-1015 -914 -1056 0
-1015 -965 -1056 0
-1015 -972 -1056 0
-1015 -966 -1056 0
-1015 -973 -1056 0
-1015 -1072 -1056 0
-1015 -1077 -1056 0
-1015 -1073 -1056 0
-1015 -1078 -1056 0
-1015 906 913 907 914 965 972 966 973 1072 1077 1073 1078 1056 0
-1021 -913 -1056 0
-1021 -914 -1056 0
-1021 -972 -1056 0
-1021 -973 -1056 0
-1021 -1077 -1056 0
-1021 -1078 -1056 0
-1021 913 914 972 973 1077 1078 1056 0
-1027 1056 0
-1010 -900 -1056 0
-1010 -907 -1056 0
-1010 -914 -1056 0
-1010 -901 -1056 0
-1010 -908 -1056 0
-1010 -915 -1056 0
-1010 -959 -1056 0
-1010 -966 -1056 0
-1010 -973 -1056 0
-1010 -960 -1056 0
-1010 -967 -1056 0
-1010 -974 -1056 0
-1010 -1067 -1056 0
-1010 -1072 -1056 0
-1010 -1077 -1056 0
-1010 -1068 -1056 0
-1010 -1073 -1056 0
-1010 -1078 -1056 0
-1010 -1069 -1056 0
-1010 -1074 -1056 0
-1010 -1079 -1056 0
-1010 900 907 914 901 908 915 959 966 973 960 967 974 1067 1072 1077 1068 1073 1078 1069 1074 1079 1056 0
-1016 -907 -1056 0
-1016 -914 -1056 0
-1016 -908 -1056 0
-1016 -915 -1056 0
-1016 -966 -1056 0
-1016 -973 -1056 0
-1016 -967 -1056 0
-1016 -974 -1056 0
-1016 -1072 -1056 0
-1016 -1077 -1056 0
-1016 -1073 -1056 0
-1016 -1078 -1056 0
-1016 -1074 -1056 0
-1016 -1079 -1056 0
-1016 907 914 908 915 966 973 967 974 1072 1077 1073 1078 1074 1079 1056 0
-1022 -914 -1056 0
-1022 -915 -1056 0
-1022 -973 -1056 0
-1022 -974 -1056 0
-1022 -1077 -1056 0
-1022 -1078 -1056 0
-1022 -1079 -1056 0
-1022 914 915 973 974 1077 1078 1079 1056 0
-1028 1056 0
-1011 -901 -1056 0
-1011 -908 -1056 0
-1011 -915 -1056 0
-1011 -902 -1056 0
-1011 -909 -1056 0
-1011 -916 -1056 0
-1011 -960 -1056 0
-1011 -967 -1056 0
-1011 -974 -1056 0
-1011 -961 -1056 0
-1011 -968 -1056 0
-1011 -975 -1056 0
-1011 -1067 -1056 0
-1011 -1072 -1056 0
-1011 -1077 -1056 0
-1011 -1068 -1056 0
-1011 -1073 -1056 0
-1011 -1078 -1056 0
-1011 -1069 -1056 0
-1011 -1074 -1056 0
-1011 -1079 -1056 0
-1011 -1070 -1056 0
-1011 -1075 -1056 0
-1011 -1080 -1056 0
-1011 901 908 915 902 909 916 960 967 974 961 968 975 1067 1072 1077 1068 1073 1078 1069 1074 1079 1070 1075 1080 1056 0
-1017 -908 -1056 0
-1017 -915 -1056 0
-1017 -909 -1056 0
-1017 -916 -1056 0
-1017 -967 -1056 0
-1017 -974 -1056 0
-1017 -968 -1056 0
-1017 -975 -1056 0
-1017 -1072 -1056 0
-1017 -1077 -1056 0
-1017 -1073 -1056 0
-1017 -1078 -1056 0
-1017 -1074 -1056 0
-1017 -1079 -1056 0
-1017 -1075 -1056 0
-1017 -1080 -1056 0
-1017 908 915 909 916 967 974 968 975 1072 1077 1073 1078 1074 1079 1075 1080 1056 0
-1023 -915 -1056 0
-1023 -916 -1056 0
-1023 -974 -1056 0
-1023 -975 -1056 0
-1023 -1077 -1056 0
-1023 -1078 -1056 0
-1023 -1079 -1056 0
-1023 -1080 -1056 0
-1023 915 916 974 975 1077 1078 1079 1080 1056 0
-1029 1056 0
-1012 -902 -1056 0
-1012 -909 -1056 0
-1012 -916 -1056 0
-1012 -903 -1056 0
-1012 -910 -1056 0
-1012 -917 -1056 0
-1012 -961 -1056 0
-1012 -968 -1056 0
-1012 -975 -1056 0
-1012 -962 -1056 0
-1012 -969 -1056 0
-1012 -976 -1056 0
-1012 -1068 -1056 0
-1012 -1073 -1056 0
-1012 -1078 -1056 0
-1012 -1069 -1056 0
-1012 -1074 -1056 0
-1012 -1079 -1056 0
-1012 -1070 -1056 0
-1012 -1075 -1056 0
-1012 -1080 -1056 0
-1012 902 909 916 903 910 917 961 968 975 962 969 976 1068 1073 1078 1069 1074 1079 1070 1075 1080 1056 0
-1018 -909 -1056 0
-1018 -916 -1056 0
-1018 -910 -1056 0
-1018 -917 -1056 0
-1018 -968 -1056 0
-1018 -975 -1056 0
-1018 -969 -1056 0
-1018 -976 -1056 0
-1018 -1073 -1056 0
-1018 -1078 -1056 0
-1018 -1074 -1056 0
-1018 -1079 -1056 0
-1018 -1075 -1056 0
-1018 -1080 -1056 0
-1018 909 916 910 917 968 975 969 976 1073 1078 1074 1079 1075 1080 1056 0
-1024 -916 -1056 0
-1024 -917 -1056 0
-1024 -975 -1056 0
-1024 -976 -1056 0
-1024 -1078 -1056 0
-1024 -1079 -1056 0
-1024 -1080 -1056 0
-1024 916 917 975 976 1078 1079 1080 1056 0
-1030 1056 0
-1013 -903 -1056 0
-1013 -910 -1056 0
-1013 -917 -1056 0
-1013 -904 -1056 0
-1013 -911 -1056 0
-1013 -918 -1056 0
-1013 -962 -1056 0
-1013 -969 -1056 0
-1013 -976 -1056 0
-1013 -963 -1056 0
-1013 -970 -1056 0
-1013 -977 -1056 0
-1013 -1069 -1056 0
-1013 -1074 -1056 0
-1013 -1079 -1056 0
-1013 -1070 -1056 0
-1013 -1075 -1056 0
-1013 -1080 -1056 0
-1013 903 910 917 904 911 918 962 969 976 963 970 977 1069 1074 1079 1070 1075 1080 1056 0
-1019 -910 -1056 0
-1019 -917 -1056 0
-1019 -911 -1056 0
-1019 -918 -1056 0
-1019 -969 -1056 0
-1019 -976 -1056 0
-1019 -970 -1056 0
-1019 -977 -1056 0
-1019 -1074 -1056 0
-1019 -1079 -1056 0
-1019 -1075 -1056 0
-1019 -1080 -1056 0
-1019 910 917 911 918 969 976 970 977 1074 1079 1075 1080 1056 0
-1025 -917 -1056 0
-1025 -918 -1056 0
-1025 -976 -1056 0
-1025 -977 -1056 0
-1025 -1079 -1056 0
-1025 -1080 -1056 0
-1025 917 918 976 977 1079 1080 1056 0
-1031 1056 0
-1062 -899 -1105 0
-1062 -906 -1105 0
-1062 -913 -1105 0
-1062 -900 -1105 0
-1062 -907 -1105 0
-1062 -914 -1105 0
-1062 -901 -1105 0
-1062 -908 -1105 0
-1062 -915 -1105 0
-1062 -958 -1105 0
-1062 -965 -1105 0
-1062 -972 -1105 0
-1062 -959 -1105 0
-1062 -966 -1105 0
-1062 -973 -1105 0
-1062 -960 -1105 0
-1062 -967 -1105 0
-1062 -974 -1105 0
-1062 -1015 -1105 0
-1062 -1021 -1105 0
-1062 -1027 -1105 0
-1062 -1016 -1105 0
-1062 -1022 -1105 0
-1062 -1028 -1105 0
-1062 -1017 -1105 0
-1062 -1023 -1105 0
-1062 -1029 -1105 0
-1062 899 906 913 900 907 914 901 908 915 958 965 972 959 966 973 960 967 974 1015 1021 1027 1016 1022 1028 1017 1023 1029 1105 0
-1067 -906 -1105 0
-1067 -913 -1105 0
-1067 -907 -1105 0
-1067 -914 -1105 0
-1067 -908 -1105 0
-1067 -915 -1105 0
-1067 -965 -1105 0
-1067 -972 -1105 0
-1067 -966 -1105 0
-1067 -973 -1105 0
-1067 -967 -1105 0
-1067 -974 -1105 0
-1067 -1021 -1105 0
-1067 -1027 -1105 0
-1067 -1022 -1105 0
-1067 -1028 -1105 0
-1067 -1023 -1105 0
-1067 -1029 -1105 0
-1067 906 913 907 914 908 915 965 972 966 973 967 974 1021 1027 1022 1028 1023 1029 1105 0
-1072 -913 -1105 0
-1072 -914 -1105 0
-1072 -915 -1105 0
-1072 -972 -1105 0
-1072 -973 -1105 0
-1072 -974 -1105 0
-1072 -1027 -1105 0
-1072 -1028 -1105 0
-1072 -1029 -1105 0
-1072 913 914 915 972 973 974 1027 1028 1029 1105 0
-1077 1105 0
-1063 -900 -1105 0
-1063 -907 -1105 0
-1063 -914 -1105 0
-1063 -901 -1105 0
-1063 -908 -1105 0
-1063 -915 -1105 0
-1063 -902 -1105 0
-1063 -909 -1105 0
-1063 -916 -1105 0
-1063 -959 -1105 0
-1063 -966 -1105 0
-1063 -973 -1105 0
-1063 -960 -1105 0
-1063 -967 -1105 0
-1063 -974 -1105 0
-1063 -961 -1105 0
-1063 -968 -1105 0
-1063 -975 -1105 0
-1063 -1015 -1105 0
-1063 -1021 -1105 0
-1063 -1027 -1105 0
-1063 -1016 -1105 0
-1063 -1022 -1105 0
-1063 -1028 -1105 0
-1063 -1017 -1105 0
-1063 -1023 -1105 0
-1063 -1029 -1105 0
-1063 -1018 -1105 0
-1063 -1024 -1105 0
-1063 -1030 -1105 0
-1063 900 907 914 901 908 915 902 909 916 959 966 973 960 967 974 961 968 975 1015 1021 1027 1016 1022 1028 1017 1023 1029 1018 1024 1030 1105 0
-1068 -907 -1105 0
-1068 -914 -1105 0
-1068 -908 -1105 0
-1068 -915 -1105 0
-1068 -909 -1105 0
-1068 -916 -1105 0
-1068 -966 -1105 0
-1068 -973 -1105 0
-1068 -967 -1105 0
-1068 -974 -1105 0
-1068 -968 -1105 0
-1068 -975 -1105 0
-1068 -1021 -1105 0
-1068 -1027 -1105 0
-1068 -1022 -1105 0
-1068 -1028 -1105 0
-1068 -1023 -1105 0
-1068 -1029 -1105 0
-1068 -1024 -1105 0
-1068 -1030 -1105 0
-1068 907 914 908 915 909 916 966 973 967 974 968 975 1021 1027 1022 1028 1023 1029 1024 1030 1105 0
-1073 -914 -1105 0
-1073 -915 -1105 0
-1073 -916 -1105 0
-1073 -973 -1105 0
-1073 -974 -1105 0
-1073 -975 -1105 0
-1073 -1027 -1105 0
-1073 -1028 -1105 0
-1073 -1029 -1105 0
-1073 -1030 -1105 0
-1073 914 915 916 973 974 975 1027 1028 1029 1030 1105 0
-1078 1105 0
-1064 -901 -1105 0
-1064 -908 -1105 0
-1064 -915 -1105 0
-1064 -902 -1105 0
-1064 -909 -1105 0
-1064 -916 -1105 0
-1064 -903 -1105 0
-1064 -910 -1105 0
-1064 -917 -1105 0
-1064 -960 -1105 0
-1064 -967 -1105 0
-1064 -974 -1105 0
-1064 -961 -1105 0
-1064 -968 -1105 0
-1064 -975 -1105 0
-1064 -962 -1105 0
-1064 -969 -1105 0
-1064 -976 -1105 0
-1064 -1016 -1105 0
-1064 -1022 -1105 0
-1064 -1028 -1105 0
-1064 -1017 -1105 0
-1064 -1023 -1105 0
-1064 -1029 -1105 0
-1064 -1018 -1105 0
-1064 -1024 -1105 0
-1064 -1030 -1105 0
-1064 -1019 -1105 0
-1064 -1025 -1105 0
-1064 -1031 -1105 0
-1064 901 908 915 902 909 916 903 910 917 960 967 974 961 968 975 962 969 976 1016 1022 1028 1017 1023 1029 1018 1024 1030 1019 1025 1031 1105 0
-1069 -908 -1105 0
-1069 -915 -1105 0
-1069 -909 -1105 0
-1069 -916 -1105 0
-1069 -910 -1105 0
-1069 -917 -1105 0
-1069 -967 -1105 0
-1069 -974 -1105 0
-1069 -968 -1105 0
-1069 -975 -1105 0
-1069 -969 -1105 0
-1069 -976 -1105 0
-1069 -1022 -1105 0
-1069 -1028 -1105 0
-1069 -1023 -1105 0
-1069 -1029 -1105 0
-1069 -1024 -1105 0
-1069 -1030 -1105 0
-1069 -1025 -1105 0
-1069 -1031 -1105 0
-1069 908 915 909 916 910 917 967 974 968 975 969 976 1022 1028 1023 1029 1024 1030 1025 1031 1105 0
-1074 -915 -1105 0
-1074 -916 -1105 0
-1074 -917 -1105 0
-1074 -974 -1105 0
-1074 -975 -1105 0
-1074 -976 -1105 0
-1074 -1028 -1105 0
-1074 -1029 -1105 0
-1074 -1030 -1105 0
-1074 -1031 -1105 0
-1074 915 916 917 974 975 976 1028 1029 1030 1031 1105 0
-1079 1105 0
-1065 -902 -1105 0
-1065 -909 -1105 0
-1065 -916 -1105 0
-1065 -903 -1105 0
-1065 -910 -1105 0
-1065 -917 -1105 0
-1065 -904 -1105 0
-1065 -911 -1105 0
-1065 -918 -1105 0
-1065 -961 -1105 0
-1065 -968 -1105 0
-1065 -975 -1105 0
-1065 -962 -1105 0
-1065 -969 -1105 0
-1065 -976 -1105 0
-1065 -963 -1105 0
-1065 -970 -1105 0
-1065 -977 -1105 0
-1065 -1017 -1105 0
-1065 -1023 -1105 0
-1065 -1029 -1105 0
-1065 -1018 -1105 0
-1065 -1024 -1105 0
-1065 -1030 -1105 0
-1065 -1019 -1105 0
-1065 -1025 -1105 0
-1065 -1031 -1105 0
-1065 902 909 916 903 910 917 904 911 918 961 968 975 962 969 976 963 970 977 1017 1023 1029 1018 1024 1030 1019 1025 1031 1105 0
-1070 -909 -1105 0
-1070 -916 -1105 0
-1070 -910 -1105 0
-1070 -917 -1105 0
-1070 -911 -1105 0
-1070 -918 -1105 0
-1070 -968 -1105 0
-1070 -975 -1105 0
-1070 -969 -1105 0
-1070 -976 -1105 0
-1070 -970 -1105 0
-1070 -977 -1105 0
-1070 -1023 -1105 0
-1070 -1029 -1105 0
-1070 -1024 -1105 0
-1070 -1030 -1105 0
-1070 -1025 -1105 0
-1070 -1031 -1105 0
-1070 909 916 910 917 911 918 968 975 969 976 970 977 1023 1029 1024 1030 1025 1031 1105 0
-1075 -916 -1105 0
-1075 -917 -1105 0
-1075 -918 -1105 0
-1075 -975 -1105 0
-1075 -976 -1105 0
-1075 -977 -1105 0
-1075 -1029 -1105 0
-1075 -1030 -1105 0
-1075 -1031 -1105 0
-1075 916 917 918 975 976 977 1029 1030 1031 1105 0
-1080 1105 0
-1113 -1179 -1164 0
-1113 -1186 -1164 0
-1113 -1193 -1164 0
-1113 -1236 -1164 0
-1113 -1242 -1164 0
-1113 -1248 -1164 0
-1113 -1288 -1164 0
-1113 -1293 -1164 0
-1113 -1298 -1164 0
-1113 1179 1186 1193 1236 1242 1248 1288 1293 1298 1164 0
-1120 -1186 -1164 0
-1120 -1193 -1164 0
-1120 -1242 -1164 0
-1120 -1248 -1164 0
-1120 -1293 -1164 0
-1120 -1298 -1164 0
-1120 1186 1193 1242 1248 1293 1298 1164 0
-1127 -1193 -1164 0
-1127 -1248 -1164 0
-1127 -1298 -1164 0
-1127 1193 1248 1298 1164 0
-1134 1164 0
-1114 -1180 -1164 0
-1114 -1187 -1164 0
-1114 -1194 -1164 0
-1114 -1236 -1164 0
-1114 -1242 -1164 0
-1114 -1248 -1164 0
-1114 -1237 -1164 0
-1114 -1243 -1164 0
-1114 -1249 -1164 0
-1114 -1288 -1164 0
-1114 -1293 -1164 0
-1114 -1298 -1164 0
-1114 -1289 -1164 0
-1114 -1294 -1164 0
-1114 -1299 -1164 0
-1114 1180 1187 1194 1236 1242 1248 1237 1243 1249 1288 1293 1298 1289 1294 1299 1164 0
-1121 -1187 -1164 0
-1121 -1194 -1164 0
-1121 -1242 -1164 0
-1121 -1248 -1164 0
-1121 -1243 -1164 0
-1121 -1249 -1164 0
-1121 -1293 -1164 0
-1121 -1298 -1164 0
-1121 -1294 -1164 0
-1121 -1299 -1164 0
-1121 1187 1194 1242 1248 1243 1249 1293 1298 1294 1299 1164 0
-1128 -1194 -1164 0
-1128 -1248 -1164 0
-1128 -1249 -1164 0
-1128 -1298 -1164 0
-1128 -1299 -1164 0
-1128 1194 1248 1249 1298 1299 1164 0
-1135 1164 0
-1115 -1181 -1164 0
-1115 -1188 -1164 0
-1115 -1195 -1164 0
-1115 -1237 -1164 0
-1115 -1243 -1164 0
-1115 -1249 -1164 0
-1115 -1238 -1164 0
-1115 -1244 -1164 0
-1115 -1250 -1164 0
-1115 -1288 -1164 0
-1115 -1293 -1164 0
-1115 -1298 -1164 0
-1115 -1289 -1164 0
-1115 -1294 -1164 0
-1115 -1299 -1164 0
-1115 -1290 -1164 0
-1115 -1295 -1164 0
-1115 -1300 -1164 0
-1115 1181 1188 1195 1237 1243 1249 1238 1244 1250 1288 1293 1298 1289 1294 1299 1290 1295 1300 1164 0
-1122 -1188 -1164 0
-1122 -1195 -1164 0
-1122 -1243 -1164 0
-1122 -1249 -1164 0
-1122 -1244 -1164 0
-1122 -1250 -1164 0
-1122 -1293 -1164 0
-1122 -1298 -1164 0
-1122 -1294 -1164 0
-1122 -1299 -1164 0
-1122 -1295 -1164 0
-1122 -1300 -1164 0
-1122 1188 1195 1243 1249 1244 1250 1293 1298 1294 1299 1295 1300 1164 0
-1129 -1195 -1164 0
-1129 -1249 -1164 0
-1129 -1250 -1164 0
-1129 -1298 -1164 0
-1129 -1299 -1164 0
-1129 -1300 -1164 0
-1129 1195 1249 1250 1298 1299 1300 1164 0
-1136 1164 0
-1116 -1182 -1164 0
-1116 -1189 -1164 0
-1116 -1196 -1164 0
-1116 -1238 -1164 0
-1116 -1244 -1164 0
-1116 -1250 -1164 0
-1116 -1239 -1164 0
-1116 -1245 -1164 0
-1116 -1251 -1164 0
-1116 -1289 -1164 0
-1116 -1294 -1164 0
-1116 -1299 -1164 0
-1116 -1290 -1164 0
-1116 -1295 -1164 0
-1116 -1300 -1164 0
-1116 -1291 -1164 0
-1116 -1296 -1164 0
-1116 -1301 -1164 0
-1116 1182 1189 1196 1238 1244 1250 1239 1245 1251 1289 1294 1299 1290 1295 1300 1291 1296 1301 1164 0
-1123 -1189 -1164 0
-1123 -1196 -1164 0
-1123 -1244 -1164 0
-1123 -1250 -1164 0
-1123 -1245 -1164 0
-1123 -1251 -1164 0
-1123 -1294 -1164 0
-1123 -1299 -1164 0
-1123 -1295 -1164 0
-1123 -1300 -1164 0
-1123 -1296 -1164 0
-1123 -1301 -1164 0
-1123 1189 1196 1244 1250 1245 1251 1294 1299 1295 1300 1296 1301 1164 0
-1130 -1196 -1164 0
-1130 -1250 -1164 0
-1130 -1251 -1164 0
-1130 -1299 -1164 0
-1130 -1300 -1164 0
-1130 -1301 -1164 0
-1130 1196 1250 1251 1299 1300 1301 1164 0
-1137 1164 0
-1117 -1183 -1164 0
-1117 -1190 -1164 0
-1117 -1197 -1164 0
-1117 -1239 -1164 0
-1117 -1245 -1164 0
-1117 -1251 -1164 0
-1117 -1240 -1164 0
-1117 -1246 -1164 0
-1117 -1252 -1164 0
-1117 -1290 -1164 0
-1117 -1295 -1164 0
-1117 -1300 -1164 0
-1117 -1291 -1164 0
-1117 -1296 -1164 0
-1117 -1301 -1164 0
-1117 1183 1190 1197 1239 1245 1251 1240 1246 1252 1290 1295 1300 1291 1296 1301 1164 0
-1124 -1190 -1164 0
-1124 -1197 -1164 0
-1124 -1245 -1164 0
-1124 -1251 -1164 0
-1124 -1246 -1164 0
-1124 -1252 -1164 0
-1124 -1295 -1164 0
-1124 -1300 -1164 0
-1124 -1296 -1164 0
-1124 -1301 -1164 0
-1124 1190 1197 1245 1251 1246 1252 1295 1300 1296 1301 1164 0
-1131 -1197 -1164 0
-1131 -1251 -1164 0
-1131 -1252 -1164 0
-1131 -1300 -1164 0
-1131 -1301 -1164 0
-1131 1197 1251 1252 1300 1301 1164 0
-1138 1164 0
-1118 -1184 -1164 0
-1118 -1191 -1164 0
-1118 -1198 -1164 0
-1118 -1240 -1164 0
-1118 -1246 -1164 0
-1118 -1252 -1164 0
-1118 -1291 -1164 0
-1118 -1296 -1164 0
-1118 -1301 -1164 0
-1118 1184 1191 1198 1240 1246 1252 1291 1296 1301 1164 0
-1125 -1191 -1164 0
-1125 -1198 -1164 0
-1125 -1246 -1164 0
-1125 -1252 -1164 0
-1125 -1296 -1164 0
-1125 -1301 -1164 0
-1125 1191 1198 1246 1252 1296 1301 1164 0
-1132 -1198 -1164 0
-1132 -1252 -1164 0
-1132 -1301 -1164 0
-1132 1198 1252 1301 1164 0
-1139 1164 0
-1172 -1120 -1223 0
-1172 -1127 -1223 0
-1172 -1134 -1223 0
-1172 -1236 -1223 0
-1172 -1242 -1223 0
-1172 -1248 -1223 0
-1172 -1288 -1223 0
-1172 -1293 -1223 0
-1172 -1298 -1223 0
-1172 1120 1127 1134 1236 1242 1248 1288 1293 1298 1223 0
-1179 -1127 -1223 0
-1179 -1134 -1223 0
-1179 -1242 -1223 0
-1179 -1248 -1223 0
-1179 -1293 -1223 0
-1179 -1298 -1223 0
-1179 1127 1134 1242 1248 1293 1298 1223 0
-1186 -1134 -1223 0
-1186 -1248 -1223 0
-1186 -1298 -1223 0
-1186 1134 1248 1298 1223 0
-1193 1223 0
-1173 -1121 -1223 0
-1173 -1128 -1223 0
-1173 -1135 -1223 0
-1173 -1236 -1223 0
-1173 -1242 -1223 0
-1173 -1248 -1223 0
-1173 -1237 -1223 0
-1173 -1243 -1223 0
-1173 -1249 -1223 0
-1173 -1288 -1223 0
-1173 -1293 -1223 0
-1173 -1298 -1223 0
-1173 -1289 -1223 0
-1173 -1294 -1223 0
-1173 -1299 -1223 0
-1173 1121 1128 1135 1236 1242 1248 1237 1243 1249 1288 1293 1298 1289 1294 1299 1223 0
-1180 -1128 -1223 0
-1180 -1135 -1223 0
-1180 -1242 -1223 0
-1180 -1248 -1223 0
-1180 -1243 -1223 0
-1180 -1249 -1223 0
-1180 -1293 -1223 0
-1180 -1298 -1223 0
-1180 -1294 -1223 0
-1180 -1299 -1223 0
-1180 1128 1135 1242 1248 1243 1249 1293 1298 1294 1299 1223 0
-1187 -1135 -1223 0
-1187 -1248 -1223 0
-1187 -1249 -1223 0
-1187 -1298 -1223 0
-1187 -1299 -1223 0
-1187 1135 1248 1249 1298 1299 1223 0
-1194 1223 0
-1174 -1122 -1223 0
-1174 -1129 -1223 0
-1174 -1136 -1223 0
-1174 -1237 -1223 0
-1174 -1243 -1223 0
-1174 -1249 -1223 0
-1174 -1238 -1223 0
-1174 -1244 -1223 0
-1174 -1250 -1223 0
-1174 -1288 -1223 0
-1174 -1293 -1223 0
-1174 -1298 -1223 0
-1174 -1289 -1223 0
-1174 -1294 -1223 0
-1174 -1299 -1223 0
-1174 -1290 -1223 0
-1174 -1295 -1223 0
-1174 -1300 -1223 0
-1174 1122 1129 1136 1237 1243 1249 1238 1244 1250 1288 1293 1298 1289 1294 1299 1290 1295 1300 1223 0
-1181 -1129 -1223 0
-1181 -1136 -1223 0
-1181 -1243 -1223 0
-1181 -1249 -1223 0
-1181 -1244 -1223 0
-1181 -1250 -1223 0
-1181 -1293 -1223 0
-1181 -1298 -1223 0
-1181 -1294 -1223 0
-1181 -1299 -1223 0
-1181 -1295 -1223 0
-1181 -1300 -1223 0
-1181 1129 1136 1243 1249 1244 1250 1293 1298 1294 1299 1295 1300 1223 0
-1188 -1136 -1223 0
-1188 -1249 -1223 0
-1188 -1250 -1223 0
-1188 -1298 -1223 0
-1188 -1299 -1223 0
-1188 -1300 -1223 0
-1188 1136 1249 1250 1298 1299 1300 1223 0
-1195 1223 0
-1175 -1123 -1223 0
-1175 -1130 -1223 0
-1175 -1137 -1223 0
-1175 -1238 -1223 0
-1175 -1244 -1223 0
-1175 -1250 -1223 0
-1175 -1239 -1223 0
-1175 -1245 -1223 0
-1175 -1251 -1223 0
-1175 -1289 -1223 0
-1175 -1294 -1223 0
-1175 -1299 -1223 0
-1175 -1290 -1223 0
-1175 -1295 -1223 0
-1175 -1300 -1223 0
-1175 -1291 -1223 0
-1175 -1296 -1223 0
-1175 -1301 -1223 0
-1175 1123 1130 1137 1238 1244 1250 1239 1245 1251 1289 1294 1299 1290 1295 1300 1291 1296 1301 1223 0
-1182 -1130 -1223 0
-1182 -1137 -1223 0
-1182 -1244 -1223 0
-1182 -1250 -1223 0
-1182 -1245 -1223 0
-1182 -1251 -1223 0
-1182 -1294 -1223 0
-1182 -1299 -1223 0
-1182 -1295 -1223 0
-1182 -1300 -1223 0
-1182 -1296 -1223 0
-1182 -1301 -1223 0
-1182 1130 1137 1244 1250 1245 1251 1294 1299 1295 1300 1296 1301 1223 0
-1189 -1137 -1223 0
-1189 -1250 -1223 0
-1189 -1251 -1223 0
-1189 -1299 -1223 0
-1189 -1300 -1223 0
-1189 -1301 -1223 0
-1189 1137 1250 1251 1299 1300 1301 1223 0
-1196 1223 0
-1176 -1124 -1223 0
-1176 -1131 -1223 0
-1176 -1138 -1223 0
-1176 -1239 -1223 0
-1176 -1245 -1223 0
-1176 -1251 -1223 0
-1176 -1240 -1223 0
-1176 -1246 -1223 0
-1176 -1252 -1223 0
-1176 -1290 -1223 0
-1176 -1295 -1223 0
-1176 -1300 -1223 0
-1176 -1291 -1223 0
-1176 -1296 -1223 0
-1176 -1301 -1223 0
-1176 1124 1131 1138 1239 1245 1251 1240 1246 1252 1290 1295 1300 1291 1296 1301 1223 0
-1183 -1131 -1223 0
-1183 -1138 -1223 0
-1183 -1245 -1223 0
-1183 -1251 -1223 0
-1183 -1246 -1223 0
-1183 -1252 -1223 0
-1183 -1295 -1223 0
-1183 -1300 -1223 0
-1183 -1296 -1223 0
-1183 -1301 -1223 0
-1183 1131 1138 1245 1251 1246 1252 1295 1300 1296 1301 1223 0
-1190 -1138 -1223 0
-1190 -1251 -1223 0
-1190 -1252 -1223 0
-1190 -1300 -1223 0
-1190 -1301 -1223 0
-1190 1138 1251 1252 1300 1301 1223 0
-1197 1223 0
-1177 -1125 -1223 0
-1177 -1132 -1223 0
-1177 -1139 -1223 0
-1177 -1240 -1223 0
-1177 -1246 -1223 0
-1177 -1252 -1223 0
-1177 -1291 -1223 0
-1177 -1296 -1223 0
-1177 -1301 -1223 0
-1177 1125 1132 1139 1240 1246 1252 1291 1296 1301 1223 0
-1184 -1132 -1223 0
-1184 -1139 -1223 0
-1184 -1246 -1223 0
-1184 -1252 -1223 0
-1184 -1296 -1223 0
-1184 -1301 -1223 0
-1184 1132 1139 1246 1252 1296 1301 1223 0
-1191 -1139 -1223 0
-1191 -1252 -1223 0
-1191 -1301 -1223 0
-1191 1139 1252 1301 1223 0
-1198 1223 0
-1230 -1120 -1277 0
-1230 -1127 -1277 0
-1230 -1134 -1277 0
-1230 -1121 -1277 0
-1230 -1128 -1277 0
-1230 -1135 -1277 0
-1230 -1179 -1277 0
-1230 -1186 -1277 0
-1230 -1193 -1277 0
-1230 -1180 -1277 0
-1230 -1187 -1277 0
-1230 -1194 -1277 0
-1230 -1288 -1277 0
-1230 -1293 -1277 0
-1230 -1298 -1277 0
-1230 -1289 -1277 0
-1230 -1294 -1277 0
-1230 -1299 -1277 0
-1230 1120 1127 1134 1121 1128 1135 1179 1186 1193 1180 1187 1194 1288 1293 1298 1289 1294 1299 1277 0
-1236 -1127 -1277 0
-1236 -1134 -1277 0
-1236 -1128 -1277 0
-1236 -1135 -1277 0
-1236 -1186 -1277 0
-1236 -1193 -1277 0
-1236 -1187 -1277 0
-1236 -1194 -1277 0
-1236 -1293 -1277 0
-1236 -1298 -1277 0
-1236 -1294 -1277 0
-1236 -1299 -1277 0
-1236 1127 1134 1128 1135 1186 1193 1187 1194 1293 1298 1294 1299 1277 0
-1242 -1134 -1277 0
-1242 -1135 -1277 0
-1242 -1193 -1277 0
-1242 -1194 -1277 0
-1242 -1298 -1277 0
-1242 -1299 -1277 0
-1242 1134 1135 1193 1194 1298 1299 1277 0
-1248 1277 0
-1231 -1121 -1277 0
-1231 -1128 -1277 0
-1231 -1135 -1277 0
-1231 -1122 -1277 0
-1231 -1129 -1277 0
-1231 -1136 -1277 0
-1231 -1180 -1277 0
-1231 -1187 -1277 0
-1231 -1194 -1277 0
-1231 -1181 -1277 0
-1231 -1188 -1277 0
-1231 -1195 -1277 0
-1231 -1288 -1277 0
-1231 -1293 -1277 0
-1231 -1298 -1277 0
-1231 -1289 -1277 0
-1231 -1294 -1277 0
-1231 -1299 -1277 0
-1231 -1290 -1277 0
-1231 -1295 -1277 0
-1231 -1300 -1277 0
-1231 1121 1128 1135 1122 1129 1136 1180 1187 1194 1181 1188 1195 1288 1293 1298 1289 1294 1299 1290 1295 1300 1277 0
-1237 -1128 -1277 0
-1237 -1135 -1277 0
-1237 -1129 -1277 0
-1237 -1136 -1277 0
-1237 -1187 -1277 0
-1237 -1194 -1277 0
-1237 -1188 -1277 0
-1237 -1195 -1277 0
-1237 -1293 -1277 0
-1237 -1298 -1277 0
-1237 -1294 -1277 0
-1237 -1299 -1277 0
-1237 -1295 -1277 0
-1237 -1300 -1277 0
-1237 1128 1135 1129 1136 1187 1194 1188 1195 1293 1298 1294 1299 1295 1300 1277 0
-1243 -1135 -1277 0
-1243 -1136 -1277 0
-1243 -1194 -1277 0
-1243 -1195 -1277 0
-1243 -1298 -1277 0
-1243 -1299 -1277 0
-1243 -1300 -1277 0
-1243 1135 1136 1194 1195 1298 1299 1300 1277 0
-1249 1277 0
-1232 -1122 -1277 0
-1232 -1129 -1277 0
-1232 -1136 -1277 0
-1232 -1123 -1277 0
-1232 -1130 -1277 0
-1232 -1137 -1277 0
-1232 -1181 -1277 0
-1232 -1188 -1277 0
-1232 -1195 -1277 0
-1232 -1182 -1277 0
-1232 -1189 -1277 0
-1232 -1196 -1277 0
-1232 -1288 -1277 0
-1232 -1293 -1277 0
-1232 -1298 -1277 0
-1232 -1289 -1277 0
-1232 -1294 -1277 0
-1232 -1299 -1277 0
-1232 -1290 -1277 0
-1232 -1295 -1277 0
-1232 -1300 -1277 0
-1232 -1291 -1277 0
-1232 -1296 -1277 0
-1232 -1301 -1277 0
-1232 1122 1129 1136 1123 1130 1137 1181 1188 1195 1182 1189 1196 1288 1293 1298 1289 1294 1299 1290 1295 1300 1291 1296 1301 1277 0
-1238 -1129 -1277 0
-1238 -1136 -1277 0
-1238 -1130 -1277 0
-1238 -1137 -1277 0
-1238 -1188 -1277 0
-1238 -1195 -1277 0
-1238 -1189 -1277 0
-1238 -1196 -1277 0
-1238 -1293 -1277 0
-1238 -1298 -1277 0
-1238 -1294 -1277 0
-1238 -1299 -1277 0
-1238 -1295 -1277 0
-1238 -1300 -1277 0
-1238 -1296 -1277 0
-1238 -1301 -1277 0
-1238 1129 1136 1130 1137 1188 1195 1189 1196 1293 1298 1294 1299 1295 1300 1296 1301 1277 0
-1244 -1136 -1277 0
-1244 -1137 -1277 0
-1244 -1195 -1277 0
-1244 -1196 -1277 0
-1244 -1298 -1277 0
-1244 -1299 -1277 0
-1244 -1300 -1277 0
-1244 -1301 -1277 0
-1244 1136 1137 1195 1196 1298 1299 1300 1301 1277 0
-1250 1277 0
-1233 -1123 -1277 0
-1233 -1130 -1277 0
-1233 -1137 -1277 0
-1233 -1124 -1277 0
-1233 -1131 -1277 0
-1233 -1138 -1277 0
-1233 -1182 -1277 0
-1233 -1189 -1277 0
-1233 -1196 -1277 0
-1233 -1183 -1277 0
-1233 -1190 -1277 0
-1233 -1197 -1277 0
-1233 -1289 -1277 0
-1233 -1294 -1277 0
-1233 -1299 -1277 0
-1233 -1290 -1277 0
-1233 -1295 -1277 0
-1233 -1300 -1277 0
-1233 -1291 -1277 0
-1233 -1296 -1277 0
-1233 -1301 -1277 0
-1233 1123 1130 1137 1124 1131 1138 1182 1189 1196 1183 1190 1197 1289 1294 1299 1290 1295 1300 1291 1296 1301 1277 0
-1239 -1130 -1277 0
-1239 -1137 -1277 0
-1239 -1131 -1277 0
-1239 -1138 -1277 0
-1239 -1189 -1277 0
-1239 -1196 -1277 0
-1239 -1190 -1277 0
-1239 -1197 -1277 0
-1239 -1294 -1277 0
-1239 -1299 -1277 0
-1239 -1295 -1277 0
-1239 -1300 -1277 0
-1239 -1296 -1277 0
-1239 -1301 -1277 0
-1239 1130 1137 1131 1138 1189 1196 1190 1197 1294 1299 1295 1300 1296 1301 1277 0
-1245 -1137 -1277 0
-1245 -1138 -1277 0
-1245 -1196 -1277 0
-1245 -1197 -1277 0
-1245 -1299 -1277 0
-1245 -1300 -1277 0
-1245 -1301 -1277 0
-1245 1137 1138 1196 1197 1299 1300 1301 1277 0
-1251 1277 0
-1234 -1124 -1277 0
-1234 -1131 -1277 0
-1234 -1138 -1277 0
-1234 -1125 -1277 0
-1234 -1132 -1277 0
-1234 -1139 -1277 0
-1234 -1183 -1277 0
-1234 -1190 -1277 0
-1234 -1197 -1277 0
-1234 -1184 -1277 0
-1234 -1191 -1277 0
-1234 -1198 -1277 0
-1234 -1290 -1277 0
-1234 -1295 -1277 0
-1234 -1300 -1277 0
-1234 -1291 -1277 0
-1234 -1296 -1277 0
-1234 -1301 -1277 0
-1234 1124 1131 1138 1125 1132 1139 1183 1190 1197 1184 1191 1198 1290 1295 1300 1291 1296 1301 1277 0
-1240 -1131 -1277 0
-1240 -1138 -1277 0
-1240 -1132 -1277 0
-1240 -1139 -1277 0
-1240 -1190 -1277 0
-1240 -1197 -1277 0
-1240 -1191 -1277 0
-1240 -1198 -1277 0
-1240 -1295 -1277 0
-1240 -1300 -1277 0
-1240 -1296 -1277 0
-1240 -1301 -1277 0
-1240 1131 1138 1132 1139 1190 1197 1191 1198 1295 1300 1296 1301 1277 0
-1246 -1138 -1277 0
-1246 -1139 -1277 0
-1246 -1197 -1277 0
-1246 -1198 -1277 0
-1246 -1300 -1277 0
-1246 -1301 -1277 0
-1246 1138 1139 1197 1198 1300 1301 1277 0
-1252 1277 0
-1283 -1120 -1326 0
-1283 -1127 -1326 0
-1283 -1134 -1326 0
-1283 -1121 -1326 0
-1283 -1128 -1326 0
-1283 -1135 -1326 0
-1283 -1122 -1326 0
-1283 -1129 -1326 0
-1283 -1136 -1326 0
-1283 -1179 -1326 0
-1283 -1186 -1326 0
-1283 -1193 -1326 0
-1283 -1180 -1326 0
-1283 -1187 -1326 0
-1283 -1194 -1326 0
-1283 -1181 -1326 0
-1283 -1188 -1326 0
-1283 -1195 -1326 0
-1283 -1236 -1326 0
-1283 -1242 -1326 0
-1283 -1248 -1326 0
-1283 -1237 -1326 0
-1283 -1243 -1326 0
-1283 -1249 -1326 0
-1283 -1238 -1326 0
-1283 -1244 -1326 0
-1283 -1250 -1326 0
-1283 1120 1127 1134 1121 1128 1135 1122 1129 1136 1179 1186 1193 1180 1187 1194 1181 1188 1195 1236 1242 1248 1237 1243 1249 1238 1244 1250 1326 0
-1288 -1127 -1326 0
-1288 -1134 -1326 0
-1288 -1128 -1326 0
-1288 -1135 -1326 0
-1288 -1129 -1326 0
-1288 -1136 -1326 0
-1288 -1186 -1326 0
-1288 -1193 -1326 0
-1288 -1187 -1326 0
-1288 -1194 -1326 0
-1288 -1188 -1326 0
-1288 -1195 -1326 0
-1288 -1242 -1326 0
-1288 -1248 -1326 0
-1288 -1243 -1326 0
-1288 -1249 -1326 0
-1288 -1244 -1326 0
-1288 -1250 -1326 0
-1288 1127 1134 1128 1135 1129 1136 1186 1193 1187 1194 1188 1195 1242 1248 1243 1249 1244 1250 1326 0
-1293 -1134 -1326 0
-1293 -1135 -1326 0
-1293 -1136 -1326 0
-1293 -1193 -1326 0
-1293 -1194 -1326 0
-1293 -1195 -1326 0
-1293 -1248 -1326 0
-1293 -1249 -1326 0
-1293 -1250 -1326 0
-1293 1134 1135 1136 1193 1194 1195 1248 1249 1250 1326 0
-1298 1326 0
-1284 -1121 -1326 0
-1284 -1128 -1326 0
-1284 -1135 -1326 0
-1284 -1122 -1326 0
-1284 -1129 -1326 0
-1284 -1136 -1326 0
-1284 -1123 -1326 0
-1284 -1130 -1326 0
-1284 -1137 -1326 0
-1284 -1180 -1326 0
-1284 -1187 -1326 0
-1284 -1194 -1326 0
-1284 -1181 -1326 0
-1284 -1188 -1326 0
-1284 -1195 -1326 0
-1284 -1182 -1326 0
-1284 -1189 -1326 0
-1284 -1196 -1326 0
-1284 -1236 -1326 0
-1284 -1242 -1326 0
-1284 -1248 -1326 0
-1284 -1237 -1326 0
-1284 -1243 -1326 0
-1284 -1249 -1326 0
-1284 -1238 -1326 0
-1284 -1244 -1326 0
-1284 -1250 -1326 0
-1284 -1239 -1326 0
-1284 -1245 -1326 0
-1284 -1251 -1326 0
-1284 1121 1128 1135 1122 1129 1136 1123 1130 1137 1180 1187 1194 1181 1188 1195 1182 1189 1196 1236 1242 1248 1237 1243 1249 1238 1244 1250 1239 1245 1251 1326 0
-1289 -1128 -1326 0
-1289 -1135 -1326 0
-1289 -1129 -1326 0
-1289 -1136 -1326 0
-1289 -1130 -1326 0
-1289 -1137 -1326 0
-1289 -1187 -1326 0
-1289 -1194 -1326 0
-1289 -1188 -1326 0
-1289 -1195 -1326 0
-1289 -1189 -1326 0
-1289 -1196 -1326 0
-1289 -1242 -1326 0
-1289 -1248 -1326 0
-1289 -1243 -1326 0
-1289 -1249 -1326 0
-1289 -1244 -1326 0
-1289 -1250 -1326 0
-1289 -1245 -1326 0
-1289 -1251 -1326 0
-1289 1128 1135 1129 1136 1130 1137 1187 1194 1188 1195 1189 1196 1242 1248 1243 1249 1244 1250 1245 1251 1326 0
-1294 -1135 -1326 0
-1294 -1136 -1326 0
-1294 -1137 -1326 0
-1294 -1194 -1326 0
-1294 -1195 -1326 0
-1294 -1196 -1326 0
-1294 -1248 -1326 0
-1294 -1249 -1326 0
-1294 -1250 -1326 0
-1294 -1251 -1326 0
-1294 1135 1136 1137 1194 1195 1196 1248 1249 1250 1251 1326 0
-1299 1326 0
-1285 -1122 -1326 0
-1285 -1129 -1326 0
-1285 -1136 -1326 0
-1285 -1123 -1326 0
-1285 -1130 -1326 0
-1285 -1137 -1326 0
-1285 -1124 -1326 0
-1285 -1131 -1326 0
-1285 -1138 -1326 0
-1285 -1181 -1326 0
-1285 -1188 -1326 0
-1285 -1195 -1326 0
-1285 -1182 -1326 0
-1285 -1189 -1326 0
-1285 -1196 -1326 0
-1285 -1183 -1326 0
-1285 -1190 -1326 0
-1285 -1197 -1326 0
-1285 -1237 -1326 0
-1285 -1243 -1326 0
-1285 -1249 -1326 0
-1285 -1238 -1326 0
-1285 -1244 -1326 0
-1285 -1250 -1326 0
-1285 -1239 -1326 0
-1285 -1245 -1326 0
-1285 -1251 -1326 0
-1285 -1240 -1326 0
-1285 -1246 -1326 0
-1285 -1252 -1326 0
-1285 1122 1129 1136 1123 1130 1137 1124 1131 1138 1181 1188 1195 1182 1189 1196 1183 1190 1197 1237 1243 1249 1238 1244 1250 1239 1245 1251 1240 1246 1252 1326 0
-1290 -1129 -1326 0
-1290 -1136 -1326 0
-1290 -1130 -1326 0
-1290 -1137 -1326 0
-1290 -1131 -1326 0
-1290 -1138 -1326 0
-1290 -1188 -1326 0
-1290 -1195 -1326 0
-1290 -1189 -1326 0
-1290 -1196 -1326 0
-1290 -1190 -1326 0
-1290 -1197 -1326 0
-1290 -1243 -1326 0
-1290 -1249 -1326 0
-1290 -1244 -1326 0
-1290 -1250 -1326 0
-1290 -1245 -1326 0
-1290 -1251 -1326 0
-1290 -1246 -1326 0
-1290 -1252 -1326 0
-1290 1129 1136 1130 1137 1131 1138 1188 1195 1189 1196 1190 1197 1243 1249 1244 1250 1245 1251 1246 1252 1326 0
-1295 -1136 -1326 0
-1295 -1137 -1326 0
-1295 -1138 -1326 0
-1295 -1195 -1326 0
-1295 -1196 -1326 0
-1295 -1197 -1326 0
-1295 -1249 -1326 0
-1295 -1250 -1326 0
-1295 -1251 -1326 0
-1295 -1252 -1326 0
-1295 1136 1137 1138 1195 1196 1197 1249 1250 1251 1252 1326 0
-1300 1326 0
-1286 -1123 -1326 0
-1286 -1130 -1326 0
-1286 -1137 -1326 0
-1286 -1124 -1326 0
-1286 -1131 -1326 0
-1286 -1138 -1326 0
-1286 -1125 -1326 0
-1286 -1132 -1326 0
-1286 -1139 -1326 0
-1286 -1182 -1326 0
-1286 -1189 -1326 0
-1286 -1196 -1326 0
-1286 -1183 -1326 0
-1286 -1190 -1326 0
-1286 -1197 -1326 0
-1286 -1184 -1326 0
-1286 -1191 -1326 0
-1286 -1198 -1326 0
-1286 -1238 -1326 0
-1286 -1244 -1326 0
-1286 -1250 -1326 0
-1286 -1239 -1326 0
-1286 -1245 -1326 0
-1286 -1251 -1326 0
-1286 -1240 -1326 0
-1286 -1246 -1326 0
-1286 -1252 -1326 0
-1286 1123 1130 1137 1124 1131 1138 1125 1132 1139 1182 1189 1196 1183 1190 1197 1184 1191 1198 1238 1244 1250 1239 1245 1251 1240 1246 1252 1326 0
-1291 -1130 -1326 0
-1291 -1137 -1326 0
-1291 -1131 -1326 0
-1291 -1138 -1326 0
-1291 -1132 -1326 0
-1291 -1139 -1326 0
-1291 -1189 -1326 0
-1291 -1196 -1326 0
-1291 -1190 -1326 0
-1291 -1197 -1326 0
-1291 -1191 -1326 0
-1291 -1198 -1326 0
-1291 -1244 -1326 0
-1291 -1250 -1326 0
-1291 -1245 -1326 0
-1291 -1251 -1326 0
-1291 -1246 -1326 0
-1291 -1252 -1326 0
-1291 1130 1137 1131 1138 1132 1139 1189 1196 1190 1197 1191 1198 1244 1250 1245 1251 1246 1252 1326 0
-1296 -1137 -1326 0
-1296 -1138 -1326 0
-1296 -1139 -1326 0
-1296 -1196 -1326 0
-1296 -1197 -1326 0
-1296 -1198 -1326 0
-1296 -1250 -1326 0
-1296 -1251 -1326 0
-1296 -1252 -1326 0
-1296 1137 1138 1139 1196 1197 1198 1250 1251 1252 1326 0
-1301 1326 0
-1334 -1400 -1385 0
-1334 -1407 -1385 0
-1334 -1414 -1385 0
-1334 -1457 -1385 0
-1334 -1463 -1385 0
-1334 -1469 -1385 0
-1334 -1509 -1385 0
-1334 -1514 -1385 0
-1334 -1519 -1385 0
-1334 1400 1407 1414 1457 1463 1469 1509 1514 1519 1385 0
-1341 -1407 -1385 0
-1341 -1414 -1385 0
-1341 -1463 -1385 0
-1341 -1469 -1385 0
-1341 -1514 -1385 0
-1341 -1519 -1385 0
-1341 1407 1414 1463 1469 1514 1519 1385 0
-1348 -1414 -1385 0
-1348 -1469 -1385 0
-1348 -1519 -1385 0
-1348 1414 1469 1519 1385 0
-1355 1385 0
-1335 -1401 -1385 0
-1335 -1408 -1385 0
-1335 -1415 -1385 0
-1335 -1457 -1385 0
-1335 -1463 -1385 0
-1335 -1469 -1385 0
-1335 -1458 -1385 0
-1335 -1464 -1385 0
-1335 -1470 -1385 0
-1335 -1509 -1385 0
-1335 -1514 -1385 0
-1335 -1519 -1385 0
-1335 -1510 -1385 0
-1335 -1515 -1385 0
-1335 -1520 -1385 0
-1335 1401 1408 1415 1457 1463 1469 1458 1464 1470 1509 1514 1519 1510 1515 1520 1385 0
-1342 -1408 -1385 0
-1342 -1415 -1385 0
-1342 -1463 -1385 0
-1342 -1469 -1385 0
-1342 -1464 -1385 0
-1342 -1470 -1385 0
-1342 -1514 -1385 0
-1342 -1519 -1385 0
-1342 -1515 -1385 0
-1342 -1520 -1385 0
-1342 1408 1415 1463 1469 1464 1470 1514 1519 1515 1520 1385 0
-1349 -1415 -1385 0
-1349 -1469 -1385 0
-1349 -1470 -1385 0
-1349 -1519 -1385 0
-1349 -1520 -1385 0
-1349 1415 1469 1470 1519 1520 1385 0
-1356 1385 0
-1336 -1402 -1385 0
-1336 -1409 -1385 0
-1336 -1416 -1385 0
-1336 -1458 -1385 0
-1336 -1464 -1385 0
-1336 -1470 -1385 0
-1336 -1459 -1385 0
-1336 -1465 -1385 0
-1336 -1471 -1385 0
-1336 -1509 -1385 0
-1336 -1514 -1385 0
-1336 -1519 -1385 0
-1336 -1510 -1385 0
-1336 -1515 -1385 0
-1336 -1520 -1385 0
-1336 -1511 -1385 0
-1336 -1516 -1385 0
-1336 -1521 -1385 0
-1336 1402 1409 1416 1458 1464 1470 1459 1465 1471 1509 1514 1519 1510 1515 1520 1511 1516 1521 1385 0
-1343 -1409 -1385 0
-1343 -1416 -1385 0
-1343 -1464 -1385 0
-1343 -1470 -1385 0
-1343 -1465 -1385 0
-1343 -1471 -1385 0
-1343 -1514 -1385 0
-1343 -1519 -1385 0
-1343 -1515 -1385 0
-1343 -1520 -1385 0
-1343 -1516 -1385 0
-1343 -1521 -1385 0
-1343 1409 1416 1464 1470 1465 1471 1514 1519 1515 1520 1516 1521 1385 0
-1350 -1416 -1385 0
-1350 -1470 -1385 0
-1350 -1471 -1385 0
-1350 -1519 -1385 0
-1350 -1520 -1385 0
-1350 -1521 -1385 0
-1350 1416 1470 1471 1519 1520 1521 1385 0
-1357 1385 0
-1337 -1403 -1385 0
-1337 -1410 -1385 0
-1337 -1417 -1385 0
-1337 -1459 -1385 0
-1337 -1465 -1385 0
-1337 -1471 -1385 0
-1337 -1460 -1385 0
-1337 -1466 -1385 0
-1337 -1472 -1385 0
-1337 -1510 -1385 0
-1337 -1515 -1385 0
-1337 -1520 -1385 0
-1337 -1511 -1385 0
-1337 -1516 -1385 0
-1337 -1521 -1385 0
-1337 -1512 -1385 0
-1337 -1517 -1385 0
-1337 -1522 -1385 0
-1337 1403 1410 1417 1459 1465 1471 1460 1466 1472 1510 1515 1520 1511 1516 1521 1512 1517 1522 1385 0
-1344 -1410 -1385 0
-1344 -1417 -1385 0
-1344 -1465 -1385 0
-1344 -1471 -1385 0
-1344 -1466 -1385 0
-1344 -1472 -1385 0
-1344 -1515 -1385 0
-1344 -1520 -1385 0
-1344 -1516 -1385 0
-1344 -1521 -1385 0
-1344 -1517 -1385 0
-1344 -1522 -1385 0
-1344 1410 1417 1465 1471 1466 1472 1515 1520 1516 1521 1517 1522 1385 0
-1351 -1417 -1385 0
-1351 -1471 -1385 0
-1351 -1472 -1385 0
-1351 -1520 -1385 0
-1351 -1521 -1385 0
-1351 -1522 -1385 0
-1351 1417 1471 1472 1520 1521 1522 1385 0
-1358 1385 0
-1338 -1404 -1385 0
-1338 -1411 -1385 0
-1338 -1418 -1385 0
-1338 -1460 -1385 0
-1338 -1466 -1385 0
-1338 -1472 -1385 0
-1338 -1461 -1385 0
-1338 -1467 -1385 0
-1338 -1473 -1385 0
-1338 -1511 -1385 0
-1338 -1516 -1385 0
-1338 -1521 -1385 0
-1338 -1512 -1385 0
-1338 -1517 -1385 0
-1338 -1522 -1385 0
-1338 1404 1411 1418 1460 1466 1472 1461 1467 1473 1511 1516 1521 1512 1517 1522 1385 0
-1345 -1411 -1385 0
-1345 -1418 -1385 0
-1345 -1466 -1385 0
-1345 -1472 -1385 0
-1345 -1467 -1385 0
-1345 -1473 -1385 0
-1345 -1516 -1385 0
-1345 -1521 -1385 0
-1345 -1517 -1385 0
-1345 -1522 -1385 0
-1345 1411 1418 1466 1472 1467 1473 1516 1521 1517 1522 1385 0
-1352 -1418 -1385 0
-1352 -1472 -1385 0
-1352 -1473 -1385 0
-1352 -1521 -1385 0
-1352 -1522 -1385 0
-1352 1418 1472 1473 1521 1522 1385 0
-1359 1385 0
-1339 -1405 -1385 0
-1339 -1412 -1385 0
-1339 -1419 -1385 0
-1339 -1461 -1385 0
-1339 -1467 -1385 0
-1339 -1473 -1385 0
-1339 -1512 -1385 0
-1339 -1517 -1385 0
-1339 -1522 -1385 0
-1339 1405 1412 1419 1461 1467 1473 1512 1517 1522 1385 0
-1346 -1412 -1385 0
-1346 -1419 -1385 0
-1346 -1467 -1385 0
-1346 -1473 -1385 0
-1346 -1517 -1385 0
-1346 -1522 -1385 0
-1346 1412 1419 1467 1473 1517 1522 1385 0
-1353 -1419 -1385 0
-1353 -1473 -1385 0
-1353 -1522 -1385 0
-1353 1419 1473 1522 1385 0
-1360 1385 0
-1393 -1341 -1444 0
-1393 -1348 -1444 0
-1393 -1355 -1444 0
-1393 -1457 -1444 0
-1393 -1463 -1444 0
-1393 -1469 -1444 0
-1393 -1509 -1444 0
-1393 -1514 -1444 0
-1393 -1519 -1444 0
-1393 1341 1348 1355 1457 1463 1469 1509 1514 1519 1444 0
-1400 -1348 -1444 0
-1400 -1355 -1444 0
-1400 -1463 -1444 0
-1400 -1469 -1444 0
-1400 -1514 -1444 0
-1400 -1519 -1444 0
-1400 1348 1355 1463 1469 1514 1519 1444 0
-1407 -1355 -1444 0
-1407 -1469 -1444 0
-1407 -1519 -1444 0
-1407 1355 1469 1519 1444 0
-1414 1444 0
-1394 -1342 -1444 0
-1394 -1349 -1444 0
-1394 -1356 -1444 0
-1394 -1457 -1444 0
-1394 -1463 -1444 0
-1394 -1469 -1444 0
-1394 -1458 -1444 0
-1394 -1464 -1444 0
-1394 -1470 -1444 0
-1394 -1509 -1444 0
-1394 -1514 -1444 0
-1394 -1519 -1444 0
-1394 -1510 -1444 0
-1394 -1515 -1444 0
-1394 -1520 -1444 0
-1394 1342 1349 1356 1457 1463 1469 1458 1464 1470 1509 1514 1519 1510 1515 1520 1444 0
-1401 -1349 -1444 0
-1401 -1356 -1444 0
-1401 -1463 -1444 0
-1401 -1469 -1444 0
-1401 -1464 -1444 0
-1401 -1470 -1444 0
-1401 -1514 -1444 0
-1401 -1519 -1444 0
-1401 -1515 -1444 0
-1401 -1520 -1444 0
-1401 1349 1356 1463 1469 1464 1470 1514 1519 1515 1520 1444 0
-1408 -1356 -1444 0
-1408 -1469 -1444 0
-1408 -1470 -1444 0
-1408 -1519 -1444 0
-1408 -1520 -1444 0
-1408 1356 1469 1470 1519 1520 1444 0
-1415 1444 0
-1395 -1343 -1444 0
-1395 -1350 -1444 0
-1395 -1357 -1444 0
-1395 -1458 -1444 0
-1395 -1464 -1444 0
-1395 -1470 -1444 0
-1395 -1459 -1444 0
-1395 -1465 -1444 0
-1395 -1471 -1444 0
-1395 -1509 -1444 0
-1395 -1514 -1444 0
-1395 -1519 -1444 0
-1395 -1510 -1444 0
-1395 -1515 -1444 0
-1395 -1520 -1444 0
-1395 -1511 -1444 0
-1395 -1516 -1444 0
-1395 -1521 -1444 0
-1395 1343 1350 1357 1458 1464 1470 1459 1465 1471 1509 1514 1519 1510 1515 1520 1511 1516 1521 1444 0
-1402 -1350 -1444 0
-1402 -1357 -1444 0
-1402 -1464 -1444 0
-1402 -1470 -1444 0
-1402 -1465 -1444 0
-1402 -1471 -1444 0
-1402 -1514 -1444 0
-1402 -1519 -1444 0
-1402 -1515 -1444 0
-1402 -1520 -1444 0
-1402 -1516 -1444 0
-1402 -1521 -1444 0
-1402 1350 1357 1464 1470 1465 1471 1514 1519 1515 1520 1516 1521 1444 0
-1409 -1357 -1444 0
-1409 -1470 -1444 0
-1409 -1471 -1444 0
-1409 -1519 -1444 0
-1409 -1520 -1444 0
-1409 -1521 -1444 0
-1409 1357 1470 1471 1519 1520 1521 1444 0
-1416 1444 0
-1396 -1344 -1444 0
-1396 -1351 -1444 0
-1396 -1358 -1444 0
-1396 -1459 -1444 0
-1396 -1465 -1444 0
-1396 -1471 -1444 0
-1396 -1460 -1444 0
-1396 -1466 -1444 0
-1396 -1472 -1444 0
-1396 -1510 -1444 0
-1396 -1515 -1444 0
-1396 -1520 -1444 0
-1396 -1511 -1444 0
-1396 -1516 -1444 0
-1396 -1521 -1444 0
-1396 -1512 -1444 0
-1396 -1517 -1444 0
-1396 -1522 -1444 0
-1396 1344 1351 1358 1459 1465 1471 1460 1466 1472 1510 1515 1520 1511 1516 1521 1512 1517 1522 1444 0
-1403 -1351 -1444 0
-1403 -1358 -1444 0
-1403 -1465 -1444 0
-1403 -1471 -1444 0
-1403 -1466 -1444 0
-1403 -1472 -1444 0
-1403 -1515 -1444 0
-1403 -1520 -1444 0
-1403 -1516 -1444 0
-1403 -1521 -1444 0
-1403 -1517 -1444 0
-1403 -1522 -1444 0
-1403 1351 1358 1465 1471 1466 1472 1515 1520 1516 1521 1517 1522 1444 0
-1410 -1358 -1444 0
-1410 -1471 -1444 0
-1410 -1472 -1444 0
-1410 -1520 -1444 0
-1410 -1521 -1444 0
-1410 -1522 -1444 0
-1410 1358 1471 1472 1520 1521 1522 1444 0
-1417 1444 0
-1397 -1345 -1444 0
-1397 -1352 -1444 0
-1397 -1359 -1444 0
-1397 -1460 -1444 0
-1397 -1466 -1444 0
-1397 -1472 -1444 0
-1397 -1461 -1444 0
-1397 -1467 -1444 0
-1397 -1473 -1444 0
-1397 -1511 -1444 0
-1397 -1516 -1444 0
-1397 -1521 -1444 0
-1397 -1512 -1444 0
-1397 -1517 -1444 0
-1397 -1522 -1444 0
-1397 1345 1352 1359 1460 1466 1472 1461 1467 1473 1511 1516 1521 1512 1517 1522 1444 0
-1404 -1352 -1444 0
-1404 -1359 -1444 0
-1404 -1466 -1444 0
-1404 -1472 -1444 0
-1404 -1467 -1444 0
-1404 -1473 -1444 0
-1404 -1516 -1444 0
-1404 -1521 -1444 0
-1404 -1517 -1444 0
-1404 -1522 -1444 0
-1404 1352 1359 1466 1472 1467 1473 1516 1521 1517 1522 1444 0
-1411 -1359 -1444 0
-1411 -1472 -1444 0
-1411 -1473 -1444 0
-1411 -1521 -1444 0
-1411 -1522 -1444 0
-1411 1359 1472 1473 1521 1522 1444 0
-1418 1444 0
-1398 -1346 -1444 0
-1398 -1353 -1444 0
-1398 -1360 -1444 0
-1398 -1461 -1444 0
-1398 -1467 -1444 0
-1398 -1473 -1444 0
-1398 -1512 -1444 0
-1398 -1517 -1444 0
-1398 -1522 -1444 0
-1398 1346 1353 1360 1461 1467 1473 1512 1517 1522 1444 0
-1405 -1353 -1444 0
-1405 -1360 -1444 0
-1405 -1467 -1444 0
-1405 -1473 -1444 0
-1405 -1517 -1444 0
-1405 -1522 -1444 0
-1405 1353 1360 1467 1473 1517 1522 1444 0
-1412 -1360 -1444 0
-1412 -1473 -1444 0
-1412 -1522 -1444 0
-1412 1360 1473 1522 1444 0
-1419 1444 0
-1451 -1341 -1498 0
-1451 -1348 -1498 0
-1451 -1355 -1498 0
-1451 -1342 -1498 0
-1451 -1349 -1498 0
-1451 -1356 -1498 0
-1451 -1400 -1498 0
-1451 -1407 -1498 0
-1451 -1414 -1498 0
-1451 -1401 -1498 0
-1451 -1408 -1498 0
-1451 -1415 -1498 0
-1451 -1509 -1498 0
-1451 -1514 -1498 0
-1451 -1519 -1498 0
-1451 -1510 -1498 0
-1451 -1515 -1498 0
-1451 -1520 -1498 0
-1451 1341 1348 1355 1342 1349 1356 1400 1407 1414 1401 1408 1415 1509 1514 1519 1510 1515 1520 1498 0
-1457 -1348 -1498 0
-1457 -1355 -1498 0
-1457 -1349 -1498 0
-1457 -1356 -1498 0
-1457 -1407 -1498 0
-1457 -1414 -1498 0
-1457 -1408 -1498 0
-1457 -1415 -1498 0
-1457 -1514 -1498 0
-1457 -1519 -1498 0
-1457 -1515 -1498 0
-1457 -1520 -1498 0
-1457 1348 1355 1349 1356 1407 1414 1408 1415 1514 1519 1515 1520 1498 0
-1463 -1355 -1498 0
-1463 -1356 -1498 0
-1463 -1414 -1498 0
-1463 -1415 -1498 0
-1463 -1519 -1498 0
-1463 -1520 -1498 0
-1463 1355 1356 1414 1415 1519 1520 1498 0
-1469 1498 0
-1452 -1342 -1498 0
-1452 -1349 -1498 0
-1452 -1356 -1498 0
-1452 -1343 -1498 0
-1452 -1350 -1498 0
-1452 -1357 -1498 0
-1452 -1401 -1498 0
-1452 -1408 -1498 0
-1452 -1415 -1498 0
-1452 -1402 -1498 0
-1452 -1409 -1498 0
-1452 -1416 -1498 0
-1452 -1509 -1498 0
-1452 -1514 -1498 0
-1452 -1519 -1498 0
-1452 -1510 -1498 0
-1452 -1515 -1498 0
-1452 -1520 -1498 0
-1452 -1511 -1498 0
-1452 -1516 -1498 0
-1452 -1521 -1498 0
-1452 1342 1349 1356 1343 1350 1357 1401 1408 1415 1402 1409 1416 1509 1514 1519 1510 1515 1520 1511 1516 1521 1498 0
-1458 -1349 -1498 0
-1458 -1356 -1498 0
-1458 -1350 -1498 0
-1458 -1357 -1498 0
-1458 -1408 -1498 0
-1458 -1415 -1498 0
-1458 -1409 -1498 0
-1458 -1416 -1498 0
-1458 -1514 -1498 0
-1458 -1519 -1498 0
-1458 -1515 -1498 0
-1458 -1520 -1498 0
-1458 -1516 -1498 0
-1458 -1521 -1498 0
-1458 1349 1356 1350 1357 1408 1415 1409 1416 1514 1519 1515 1520 1516 1521 1498 0
-1464 -1356 -1498 0
-1464 -1357 -1498 0
-1464 -1415 -1498 0
-1464 -1416 -1498 0
-1464 -1519 -1498 0
-1464 -1520 -1498 0
-1464 -1521 -1498 0
-1464 1356 1357 1415 1416 1519 1520 1521 1498 0
-1470 1498 0
-1453 -1343 -1498 0
-1453 -1350 -1498 0
-1453 -1357 -1498 0
-1453 -1344 -1498 0
-1453 -1351 -1498 0
-1453 -1358 -1498 0
-1453 -1402 -1498 0
-1453 -1409 -1498 0
-1453 -1416 -1498 0
-1453 -1403 -1498 0
-1453 -1410 -1498 0
-1453 -1417 -1498 0
-1453 -1509 -1498 0
-1453 -1514 -1498 0
-1453 -1519 -1498 0
-1453 -1510 -1498 0
-1453 -1515 -1498 0
-1453 -1520 -1498 0
-1453 -1511 -1498 0
-1453 -1516 -1498 0
-1453 -1521 -1498 0
-1453 -1512 -1498 0
-1453 -1517 -1498 0
-1453 -1522 -1498 0
-1453 1343 1350 1357 1344 1351 1358 1402 1409 1416 1403 1410 1417 1509 1514 1519 1510 1515 1520 1511 1516 1521 1512 1517 1522 1498 0
-1459 -1350 -1498 0
-1459 -1357 -1498 0
-1459 -1351 -1498 0
-1459 -1358 -1498 0
-1459 -1409 -1498 0
-1459 -1416 -1498 0
-1459 -1410 -1498 0
-1459 -1417 -1498 0
-1459 -1514 -1498 0
-1459 -1519 -1498 0
-1459 -1515 -1498 0
-1459 -1520 -1498 0
-1459 -1516 -1498 0
-1459 -1521 -1498 0
-1459 -1517 -1498 0
-1459 -1522 -1498 0
-1459 1350 1357 1351 1358 1409 1416 1410 1417 1514 1519 1515 1520 1516 1521 1517 1522 1498 0
-1465 -1357 -1498 0
-1465 -1358 -1498 0
-1465 -1416 -1498 0
-1465 -1417 -1498 0
-1465 -1519 -1498 0
-1465 -1520 -1498 0
-1465 -1521 -1498 0
-1465 -1522 -1498 0
-1465 1357 1358 1416 1417 1519 1520 1521 1522 1498 0
-1471 1498 0
-1454 -1344 -1498 0
-1454 -1351 -1498 0
-1454 -1358 -1498 0
-1454 -1345 -1498 0
-1454 -1352 -1498 0
-1454 -1359 -1498 0
-1454 -1403 -1498 0
-1454 -1410 -1498 0
-1454 -1417 -1498 0
-1454 -1404 -1498 0
-1454 -1411 -1498 0
-1454 -1418 -1498 0
-1454 -1510 -1498 0
-1454 -1515 -1498 0
-1454 -1520 -1498 0
-1454 -1511 -1498 0
-1454 -1516 -1498 0
-1454 -1521 -1498 0
-1454 -1512 -1498 0
-1454 -1517 -1498 0
-1454 -1522 -1498 0
-1454 1344 1351 1358 1345 1352 1359 1403 1410 1417 1404 1411 1418 1510 1515 1520 1511 1516 1521 1512 1517 1522 1498 0
-1460 -1351 -1498 0
-1460 -1358 -1498 0
-1460 -1352 -1498 0
-1460 -1359 -1498 0
-1460 -1410 -1498 0
-1460 -1417 -1498 0
-1460 -1411 -1498 0
-1460 -1418 -1498 0
-1460 -1515 -1498 0
-1460 -1520 -1498 0
-1460 -1516 -1498 0
-1460 -1521 -1498 0
-1460 -1517 -1498 0
-1460 -1522 -1498 0
-1460 1351 1358 1352 1359 1410 1417 1411 1418 1515 1520 1516 1521 1517 1522 1498 0
-1466 -1358 -1498 0
-1466 -1359 -1498 0
-1466 -1417 -1498 0
-1466 -1418 -1498 0
-1466 -1520 -1498 0
-1466 -1521 -1498 0
-1466 -1522 -1498 0
-1466 1358 1359 1417 1418 1520 1521 1522 1498 0
-1472 1498 0
-1455 -1345 -1498 0
-1455 -1352 -1498 0
-1455 -1359 -1498 0
-1455 -1346 -1498 0
-1455 -1353 -1498 0
-1455 -1360 -1498 0
-1455 -1404 -1498 0
-1455 -1411 -1498 0
-1455 -1418 -1498 0
-1455 -1405 -1498 0
-1455 -1412 -1498 0
-1455 -1419 -1498 0
-1455 -1511 -1498 0
-1455 -1516 -1498 0
-1455 -1521 -1498 0
-1455 -1512 -1498 0
-1455 -1517 -1498 0
-1455 -1522 -1498 0
-1455 1345 1352 1359 1346 1353 1360 1404 1411 1418 1405 1412 1419 1511 1516 1521 1512 1517 1522 1498 0
-1461 -1352 -1498 0
-1461 -1359 -1498 0
-1461 -1353 -1498 0
-1461 -1360 -1498 0
-1461 -1411 -1498 0
-1461 -1418 -1498 0
-1461 -1412 -1498 0
-1461 -1419 -1498 0
-1461 -1516 -1498 0
-1461 -1521 -1498 0
-1461 -1517 -1498 0
-1461 -1522 -1498 0
-1461 1352 1359 1353 1360 1411 1418 1412 1419 1516 1521 1517 1522 1498 0
-1467 -1359 -1498 0
-1467 -1360 -1498 0
-1467 -1418 -1498 0
-1467 -1419 -1498 0
-1467 -1521 -1498 0
-1467 -1522 -1498 0
-1467 1359 1360 1418 1419 1521 1522 1498 0
-1473 1498 0
-1504 -1341 -1547 0
-1504 -1348 -1547 0
-1504 -1355 -1547 0
-1504 -1342 -1547 0
-1504 -1349 -1547 0
-1504 -1356 -1547 0
-1504 -1343 -1547 0
-1504 -1350 -1547 0
-1504 -1357 -1547 0
-1504 -1400 -1547 0
-1504 -1407 -1547 0
-1504 -1414 -1547 0
-1504 -1401 -1547 0
-1504 -1408 -1547 0
-1504 -1415 -1547 0
-1504 -1402 -1547 0
-1504 -1409 -1547 0
-1504 -1416 -1547 0
-1504 -1457 -1547 0
-1504 -1463 -1547 0
-1504 -1469 -1547 0
-1504 -1458 -1547 0
-1504 -1464 -1547 0
-1504 -1470 -1547 0
-1504 -1459 -1547 0
-1504 -1465 -1547 0
-1504 -1471 -1547 0
-1504 1341 1348 1355 1342 1349 1356 1343 1350 1357 1400 1407 1414 1401 1408 1415 1402 1409 1416 1457 1463 1469 1458 1464 1470 1459 1465 1471 1547 0
-1509 -1348 -1547 0
-1509 -1355 -1547 0
-1509 -1349 -1547 0
-1509 -1356 -1547 0
-1509 -1350 -1547 0
-1509 -1357 -1547 0
-1509 -1407 -1547 0
-1509 -1414 -1547 0
-1509 -1408 -1547 0
-1509 -1415 -1547 0
-1509 -1409 -1547 0
-1509 -1416 -1547 0
-1509 -1463 -1547 0
-1509 -1469 -1547 0
-1509 -1464 -1547 0
-1509 -1470 -1547 0
-1509 -1465 -1547 0
-1509 -1471 -1547 0
-1509 1348 1355 1349 1356 1350 1357 1407 1414 1408 1415 1409 1416 1463 1469 1464 1470 1465 1471 1547 0
-1514 -1355 -1547 0
-1514 -1356 -1547 0
-1514 -1357 -1547 0
-1514 -1414 -1547 0
-1514 -1415 -1547 0
-1514 -1416 -1547 0
-1514 -1469 -1547 0
-1514 -1470 -1547 0
-1514 -1471 -1547 0
-1514 1355 1356 1357 1414 1415 1416 1469 1470 1471 1547 0
-1519 1547 0
-1505 -1342 -1547 0
-1505 -1349 -1547 0
-1505 -1356 -1547 0
-1505 -1343 -1547 0
-1505 -1350 -1547 0
-1505 -1357 -1547 0
-1505 -1344 -1547 0
-1505 -1351 -1547 0
-1505 -1358 -1547 0
-1505 -1401 -1547 0
-1505 -1408 -1547 0
-1505 -1415 -1547 0
-1505 -1402 -1547 0
-1505 -1409 -1547 0
-1505 -1416 -1547 0
-1505 -1403 -1547 0
-1505 -1410 -1547 0
-1505 -1417 -1547 0
-1505 -1457 -1547 0
-1505 -1463 -1547 0
-1505 -1469 -1547 0
-1505 -1458 -1547 0
-1505 -1464 -1547 0
-1505 -1470 -1547 0
-1505 -1459 -1547 0
-1505 -1465 -1547 0
-1505 -1471 -1547 0
-1505 -1460 -1547 0
-1505 -1466 -1547 0
-1505 -1472 -1547 0
-1505 1342 1349 1356 1343 1350 1357 1344 1351 1358 1401 1408 1415 1402 1409 1416 1403 1410 1417 1457 1463 1469 1458 1464 1470 1459 1465 1471 1460 1466 1472 1547 0
-1510 -1349 -1547 0
-1510 -1356 -1547 0
-1510 -1350 -1547 0
-1510 -1357 -1547 0
-1510 -1351 -1547 0
-1510 -1358 -1547 0
-1510 -1408 -1547 0
-1510 -1415 -1547 0
-1510 -1409 -1547 0
-1510 -1416 -1547 0
-1510 -1410 -1547 0
-1510 -1417 -1547 0
-1510 -1463 -1547 0
-1510 -1469 -1547 0
-1510 -1464 -1547 0
-1510 -1470 -1547 0
-1510 -1465 -1547 0
-1510 -1471 -1547 0
-1510 -1466 -1547 0
-1510 -1472 -1547 0
-1510 1349 1356 1350 1357 1351 1358 1408 1415 1409 1416 1410 1417 1463 1469 1464 1470 1465 1471 1466 1472 1547 0
-1515 -1356 -1547 0
-1515 -1357 -1547 0
-1515 -1358 -1547 0
-1515 -1415 -1547 0
-1515 -1416 -1547 0
-1515 -1417 -1547 0
-1515 -1469 -1547 0
-1515 -1470 -1547 0
-1515 -1471 -1547 0
-1515 -1472 -1547 0
-1515 1356 1357 1358 1415 1416 1417 1469 1470 1471 1472 1547 0
-1520 1547 0
-1506 -1343 -1547 0
-1506 -1350 -1547 0
-1506 -1357 -1547 0
-1506 -1344 -1547 0
-1506 -1351 -1547 0
-1506 -1358 -1547 0
-1506 -1345 -1547 0
-1506 -1352 -1547 0
-1506 -1359 -1547 0
-1506 -1402 -1547 0
-1506 -1409 -1547 0
-1506 -1416 -1547 0
-1506 -1403 -1547 0
-1506 -1410 -1547 0
-1506 -1417 -1547 0
-1506 -1404 -1547 0
-1506 -1411 -1547 0
-1506 -1418 -1547 0
-1506 -1458 -1547 0
-1506 -1464 -1547 0
-1506 -1470 -1547 0
-1506 -1459 -1547 0
-1506 -1465 -1547 0
-1506 -1471 -1547 0
-1506 -1460 -1547 0
-1506 -1466 -1547 0
-1506 -1472 -1547 0
-1506 -1461 -1547 0
-1506 -1467 -1547 0
-1506 -1473 -1547 0
-1506 1343 1350 1357 1344 1351 1358 1345 1352 1359 1402 1409 1416 1403 1410 1417 1404 1411 1418 1458 1464 1470 1459 1465 1471 1460 1466 1472 1461 1467 1473 1547 0
-1511 -1350 -1547 0
-1511 -1357 -1547 0
-1511 -1351 -1547 0
-1511 -1358 -1547 0
-1511 -1352 -1547 0
-1511 -1359 -1547 0
-1511 -1409 -1547 0
-1511 -1416 -1547 0
-1511 -1410 -1547 0
-1511 -1417 -1547 0
-1511 -1411 -1547 0
-1511 -1418 -1547 0
-1511 -1464 -1547 0
-1511 -1470 -1547 0
-1511 -1465 -1547 0
-1511 -1471 -1547 0
-1511 -1466 -1547 0
-1511 -1472 -1547 0
-1511 -1467 -1547 0
-1511 -1473 -1547 0
-1511 1350 1357 1351 1358 1352 1359 1409 1416 1410 1417 1411 1418 1464 1470 1465 1471 1466 1472 1467 1473 1547 0
-1516 -1357 -1547 0
-1516 -1358 -1547 0
-1516 -1359 -1547 0
-1516 -1416 -1547 0
-1516 -1417 -1547 0
-1516 -1418 -1547 0
-1516 -1470 -1547 0
-1516 -1471 -1547 0
-1516 -1472 -1547 0
-1516 -1473 -1547 0
-1516 1357 1358 1359 1416 1417 1418 1470 1471 1472 1473 1547 0
-1521 1547 0
-1507 -1344 -1547 0
-1507 -1351 -1547 0
-1507 -1358 -1547 0
-1507 -1345 -1547 0
-1507 -1352 -1547 0
-1507 -1359 -1547 0
-1507 -1346 -1547 0
-1507 -1353 -1547 0
-1507 -1360 -1547 0
-1507 -1403 -1547 0
-1507 -1410 -1547 0
-1507 -1417 -1547 0
-1507 -1404 -1547 0
-1507 -1411 -1547 0
-1507 -1418 -1547 0
-1507 -1405 -1547 0
-1507 -1412 -1547 0
-1507 -1419 -1547 0
-1507 -1459 -1547 0
-1507 -1465 -1547 0
-1507 -1471 -1547 0
-1507 -1460 -1547 0
-1507 -1466 -1547 0
-1507 -1472 -1547 0
-1507 -1461 -1547 0
-1507 -1467 -1547 0
-1507 -1473 -1547 0
-1507 1344 1351 1358 1345 1352 1359 1346 1353 1360 1403 1410 1417 1404 1411 1418 1405 1412 1419 1459 1465 1471 1460 1466 1472 1461 1467 1473 1547 0
-1512 -1351 -1547 0
-1512 -1358 -1547 0
-1512 -1352 -1547 0
-1512 -1359 -1547 0
-1512 -1353 -1547 0
-1512 -1360 -1547 0
-1512 -1410 -1547 0
-1512 -1417 -1547 0
-1512 -1411 -1547 0
-1512 -1418 -1547 0
-1512 -1412 -1547 0
-1512 -1419 -1547 0
-1512 -1465 -1547 0
-1512 -1471 -1547 0
-1512 -1466 -1547 0
-1512 -1472 -1547 0
-1512 -1467 -1547 0
-1512 -1473 -1547 0
-1512 1351 1358 1352 1359 1353 1360 1410 1417 1411 1418 1412 1419 1465 1471 1466 1472 1467 1473 1547 0
-1517 -1358 -1547 0
-1517 -1359 -1547 0
-1517 -1360 -1547 0
-1517 -1417 -1547 0
-1517 -1418 -1547 0
-1517 -1419 -1547 0
-1517 -1471 -1547 0
-1517 -1472 -1547 0
-1517 -1473 -1547 0
-1517 1358 1359 1360 1417 1418 1419 1471 1472 1473 1547 0
-1522 1547 0
119 0
124 0
4 0
7 0
65 0
66 0
176 0
182 0
1445 0
1450 0
1327 0
1340 0
1387 0
1399 0
1502 0
1503 0
-1548 59 0
-1548 -8 0
-1548 -67 0
-1548 -125 0
-1548 -178 0
-1548 222 0
-1548 228 0
-1549 59 0
-1549 -9 0
-1549 -68 0
-1549 -125 0
-1549 -126 0
-1549 -178 0
-1549 -179 0
-1549 223 0
-1549 228 0
-1550 59 0
-1550 -10 0
-1550 -69 0
-1550 -126 0
-1550 -127 0
-1550 -178 0
-1550 -179 0
-1550 -180 0
-1550 224 0
-1550 228 0
-1551 59 0
-1551 -11 0
-1551 -70 0
-1551 -127 0
-1551 -128 0
-1551 -179 0
-1551 -180 0
-1551 -181 0
-1551 225 0
-1551 228 0
-1552 59 0
-1552 -12 0
-1552 -71 0
-1552 -128 0
-1552 -129 0
-1552 -180 0
-1552 -181 0
-1552 226 0
-1552 228 0
-1553 59 0
-1553 -13 0
-1553 -72 0
-1553 -129 0
-1553 -181 0
-1553 227 0
-1553 228 0
-1554 59 0
-1554 60 0
-1554 -66 235 0
-1554 -66 -131 0
-1554 -66 -183 0
-1554 -15 0
-1554 -73 242 0
-1554 -73 -137 0
-1554 -73 -188 0
-1554 -22 0
-1554 -80 249 0
-1554 -80 -143 0
-1554 -80 -193 0
-1554 -29 0
-1554 222 0
-1555 59 0
-1555 61 0
-1555 -66 235 0
-1555 -66 -131 0
-1555 -66 -132 0
-1555 -66 -183 0
-1555 -66 -184 0
-1555 -16 0
-1555 -73 242 0
-1555 -73 -137 0
-1555 -73 -138 0
-1555 -73 -188 0
-1555 -73 -189 0
-1555 -23 0
-1555 -80 249 0
-1555 -80 -143 0
-1555 -80 -144 0
-1555 -80 -193 0
-1555 -80 -194 0
-1555 -30 0
-1555 223 0
-1556 59 0
-1556 62 0
-1556 -66 235 0
-1556 -66 -132 0
-1556 -66 -133 0
-1556 -66 -183 0
-1556 -66 -184 0
-1556 -66 -185 0
-1556 -17 0
-1556 -73 242 0
-1556 -73 -138 0
-1556 -73 -139 0
-1556 -73 -188 0
-1556 -73 -189 0
-1556 -73 -190 0
-1556 -24 0
-1556 -80 249 0
-1556 -80 -144 0
-1556 -80 -145 0
-1556 -80 -193 0
-1556 -80 -194 0
-1556 -80 -195 0
-1556 -31 0
-1556 224 0
-1557 59 0
-1557 63 0
-1557 -66 235 0
-1557 -66 -133 0
-1557 -66 -134 0
-1557 -66 -184 0
-1557 -66 -185 0
-1557 -66 -186 0
-1557 -18 0
-1557 -73 242 0
-1557 -73 -139 0
-1557 -73 -140 0
-1557 -73 -189 0
-1557 -73 -190 0
-1557 -73 -191 0
-1557 -25 0
-1557 -80 249 0
-1557 -80 -145 0
-1557 -80 -146 0
-1557 -80 -194 0
-1557 -80 -195 0
-1557 -80 -196 0
-1557 -32 0
-1557 225 0
-1558 59 0
-1558 64 0
-1558 -66 235 0
-1558 -66 -134 0
-1558 -66 -135 0
-1558 -66 -185 0
-1558 -66 -186 0
-1558 -19 0
-1558 -73 242 0
-1558 -73 -140 0
-1558 -73 -141 0
-1558 -73 -190 0
-1558 -73 -191 0
-1558 -26 0
-1558 -80 249 0
-1558 -80 -146 0
-1558 -80 -147 0
-1558 -80 -195 0
-1558 -80 -196 0
-1558 -33 0
-1558 226 0
-1559 59 0
-1559 65 0
-1559 -66 235 0
-1559 -66 -135 0
-1559 -66 -186 0
-1559 -20 0
-1559 -73 242 0
-1559 -73 -141 0
-1559 -73 -191 0
-1559 -27 0
-1559 -80 249 0
-1559 -80 -147 0
-1559 -80 -196 0
-1559 -34 0
-1559 227 0
-1560 59 0
-1560 119 0
-1560 -124 235 0
-1560 -124 -74 0
-1560 -124 -183 0
-1560 -15 0
-1560 -130 242 0
-1560 -130 -81 0
-1560 -130 -188 0
-1560 -22 0
-1560 -136 249 0
-1560 -136 -88 0
-1560 -136 -193 0
-1560 -29 0
-1560 222 0
-1561 59 0
-1561 119 120 0
-1561 -124 235 0
-1561 -124 -75 0
-1561 -124 -183 0
-1561 -124 -184 0
-1561 -16 0
-1561 -130 242 0
-1561 -130 -82 0
-1561 -130 -188 0
-1561 -130 -189 0
-1561 -23 0
-1561 -136 249 0
-1561 -136 -89 0
-1561 -136 -193 0
-1561 -136 -194 0
-1561 -30 0
-1561 223 0
-1562 59 0
-1562 120 121 0
-1562 -124 235 0
-1562 -124 -76 0
-1562 -124 -183 0
-1562 -124 -184 0
-1562 -124 -185 0
-1562 -17 0
-1562 -130 242 0
-1562 -130 -83 0
-1562 -130 -188 0
-1562 -130 -189 0
-1562 -130 -190 0
-1562 -24 0
-1562 -136 249 0
-1562 -136 -90 0
-1562 -136 -193 0
-1562 -136 -194 0
-1562 -136 -195 0
-1562 -31 0
-1562 224 0
-1563 59 0
-1563 121 122 0
-1563 -124 235 0
-1563 -124 -77 0
-1563 -124 -184 0
-1563 -124 -185 0
-1563 -124 -186 0
-1563 -18 0
-1563 -130 242 0
-1563 -130 -84 0
-1563 -130 -189 0
-1563 -130 -190 0
-1563 -130 -191 0
-1563 -25 0
-1563 -136 249 0
-1563 -136 -91 0
-1563 -136 -194 0
-1563 -136 -195 0
-1563 -136 -196 0
-1563 -32 0
-1563 225 0
-1564 59 0
-1564 122 123 0
-1564 -124 235 0
-1564 -124 -78 0
-1564 -124 -185 0
-1564 -124 -186 0
-1564 -19 0
-1564 -130 242 0
-1564 -130 -85 0
-1564 -130 -190 0
-1564 -130 -191 0
-1564 -26 0
-1564 -136 249 0
-1564 -136 -92 0
-1564 -136 -195 0
-1564 -136 -196 0
-1564 -33 0
-1564 226 0
-1565 59 0
-1565 123 0
-1565 -124 235 0
-1565 -124 -79 0
-1565 -124 -186 0
-1565 -20 0
-1565 -130 242 0
-1565 -130 -86 0
-1565 -130 -191 0
-1565 -27 0
-1565 -136 249 0
-1565 -136 -93 0
-1565 -136 -196 0
-1565 -34 0
-1565 227 0
-1566 59 0
-1566 173 0
-1566 -177 235 0
-1566 -177 -74 0
-1566 -177 -131 0
-1566 -15 0
-1566 -182 242 0
-1566 -182 -81 0
-1566 -182 -137 0
-1566 -22 0
-1566 -187 249 0
-1566 -187 -88 0
-1566 -187 -143 0
-1566 -29 0
-1566 222 0
-1567 59 0
-1567 173 174 0
-1567 -177 235 0
-1567 -177 -75 0
-1567 -177 -131 0
-1567 -177 -132 0
-1567 -16 0
-1567 -182 242 0
-1567 -182 -82 0
-1567 -182 -137 0
-1567 -182 -138 0
-1567 -23 0
-1567 -187 249 0
-1567 -187 -89 0
-1567 -187 -143 0
-1567 -187 -144 0
-1567 -30 0
-1567 223 0
-1568 59 0
-1568 173 174 175 0
-1568 -177 235 0
-1568 -177 -76 0
-1568 -177 -132 0
-1568 -177 -133 0
-1568 -17 0
-1568 -182 242 0
-1568 -182 -83 0
-1568 -182 -138 0
-1568 -182 -139 0
-1568 -24 0
-1568 -187 249 0
-1568 -187 -90 0
-1568 -187 -144 0
-1568 -187 -145 0
-1568 -31 0
-1568 224 0
-1569 59 0
-1569 174 175 176 0
-1569 -177 235 0
-1569 -177 -77 0
-1569 -177 -133 0
-1569 -177 -134 0
-1569 -18 0
-1569 -182 242 0
-1569 -182 -84 0
-1569 -182 -139 0
-1569 -182 -140 0
-1569 -25 0
-1569 -187 249 0
-1569 -187 -91 0
-1569 -187 -145 0
-1569 -187 -146 0
-1569 -32 0
-1569 225 0
-1570 59 0
-1570 175 176 0
-1570 -177 235 0
-1570 -177 -78 0
-1570 -177 -134 0
-1570 -177 -135 0
-1570 -19 0
-1570 -182 242 0
-1570 -182 -85 0
-1570 -182 -140 0
-1570 -182 -141 0
-1570 -26 0
-1570 -187 249 0
-1570 -187 -92 0
-1570 -187 -146 0
-1570 -187 -147 0
-1570 -33 0
-1570 226 0
-1571 59 0
-1571 176 0
-1571 -177 235 0
-1571 -177 -79 0
-1571 -177 -135 0
-1571 -20 0
-1571 -182 242 0
-1571 -182 -86 0
-1571 -182 -141 0
-1571 -27 0
-1571 -187 249 0
-1571 -187 -93 0
-1571 -187 -147 0
-1571 -34 0
-1571 227 0
-1572 118 0
-1572 -67 0
-1572 -8 0
-1572 -125 0
-1572 -178 0
-1572 281 0
-1572 287 0
-1573 118 0
-1573 -68 0
-1573 -9 0
-1573 -125 0
-1573 -126 0
-1573 -178 0
-1573 -179 0
-1573 282 0
-1573 287 0
-1574 118 0
-1574 -69 0
-1574 -10 0
-1574 -126 0
-1574 -127 0
-1574 -178 0
-1574 -179 0
-1574 -180 0
-1574 283 0
-1574 287 0
-1575 118 0
-1575 -70 0
-1575 -11 0
-1575 -127 0
-1575 -128 0
-1575 -179 0
-1575 -180 0
-1575 -181 0
-1575 284 0
-1575 287 0
-1576 118 0
-1576 -71 0
-1576 -12 0
-1576 -128 0
-1576 -129 0
-1576 -180 0
-1576 -181 0
-1576 285 0
-1576 287 0
-1577 118 0
-1577 -72 0
-1577 -13 0
-1577 -129 0
-1577 -181 0
-1577 286 0
-1577 287 0
-1578 118 0
-1578 1 0
-1578 -7 294 0
-1578 -7 -131 0
-1578 -7 -183 0
-1578 -74 0
-1578 -14 301 0
-1578 -14 -137 0
-1578 -14 -188 0
-1578 -81 0
-1578 -21 308 0
-1578 -21 -143 0
-1578 -21 -193 0
-1578 -88 0
-1578 281 0
-1579 118 0
-1579 2 0
-1579 -7 294 0
-1579 -7 -131 0
-1579 -7 -132 0
-1579 -7 -183 0
-1579 -7 -184 0
-1579 -75 0
-1579 -14 301 0
-1579 -14 -137 0
-1579 -14 -138 0
-1579 -14 -188 0
-1579 -14 -189 0
-1579 -82 0
-1579 -21 308 0
-1579 -21 -143 0
-1579 -21 -144 0
-1579 -21 -193 0
-1579 -21 -194 0
-1579 -89 0
-1579 282 0
-1580 118 0
-1580 3 0
-1580 -7 294 0
-1580 -7 -132 0
-1580 -7 -133 0
-1580 -7 -183 0
-1580 -7 -184 0
-1580 -7 -185 0
-1580 -76 0
-1580 -14 301 0
-1580 -14 -138 0
-1580 -14 -139 0
-1580 -14 -188 0
-1580 -14 -189 0
-1580 -14 -190 0
-1580 -83 0
-1580 -21 308 0
-1580 -21 -144 0
-1580 -21 -145 0
-1580 -21 -193 0
-1580 -21 -194 0
-1580 -21 -195 0
-1580 -90 0
-1580 283 0
-1581 118 0
-1581 4 0
-1581 -7 294 0
-1581 -7 -133 0
-1581 -7 -134 0
-1581 -7 -184 0
-1581 -7 -185 0
-1581 -7 -186 0
-1581 -77 0
-1581 -14 301 0
-1581 -14 -139 0
-1581 -14 -140 0
-1581 -14 -189 0
-1581 -14 -190 0
-1581 -14 -191 0
-1581 -84 0
-1581 -21 308 0
-1581 -21 -145 0
-1581 -21 -146 0
-1581 -21 -194 0
-1581 -21 -195 0
-1581 -21 -196 0
-1581 -91 0
-1581 284 0
-1582 118 0
-1582 5 0
-1582 -7 294 0
-1582 -7 -134 0
-1582 -7 -135 0
-1582 -7 -185 0
-1582 -7 -186 0
-1582 -78 0
-1582 -14 301 0
-1582 -14 -140 0
-1582 -14 -141 0
-1582 -14 -190 0
-1582 -14 -191 0
-1582 -85 0
-1582 -21 308 0
-1582 -21 -146 0
-1582 -21 -147 0
-1582 -21 -195 0
-1582 -21 -196 0
-1582 -92 0
-1582 285 0
-1583 118 0
-1583 6 0
-1583 -7 294 0
-1583 -7 -135 0
-1583 -7 -186 0
-1583 -79 0
-1583 -14 301 0
-1583 -14 -141 0
-1583 -14 -191 0
-1583 -86 0
-1583 -21 308 0
-1583 -21 -147 0
-1583 -21 -196 0
-1583 -93 0
-1583 286 0
-1584 118 0
-1584 119 0
-1584 -124 294 0
-1584 -124 -15 0
-1584 -124 -183 0
-1584 -74 0
-1584 -130 301 0
-1584 -130 -22 0
-1584 -130 -188 0
-1584 -81 0
-1584 -136 308 0
-1584 -136 -29 0
-1584 -136 -193 0
-1584 -88 0
-1584 281 0
-1585 118 0
-1585 119 120 0
-1585 -124 294 0
-1585 -124 -16 0
-1585 -124 -183 0
-1585 -124 -184 0
-1585 -75 0
-1585 -130 301 0
-1585 -130 -23 0
-1585 -130 -188 0
-1585 -130 -189 0
-1585 -82 0
-1585 -136 308 0
-1585 -136 -30 0
-1585 -136 -193 0
-1585 -136 -194 0
-1585 -89 0
-1585 282 0
-1586 118 0
-1586 120 121 0
-1586 -124 294 0
-1586 -124 -17 0
-1586 -124 -183 0
-1586 -124 -184 0
-1586 -124 -185 0
-1586 -76 0
-1586 -130 301 0
-1586 -130 -24 0
-1586 -130 -188 0
-1586 -130 -189 0
-1586 -130 -190 0
-1586 -83 0
-1586 -136 308 0
-1586 -136 -31 0
-1586 -136 -193 0
-1586 -136 -194 0
-1586 -136 -195 0
-1586 -90 0
-1586 283 0
-1587 118 0
-1587 121 122 0
-1587 -124 294 0
-1587 -124 -18 0
-1587 -124 -184 0
-1587 -124 -185 0
-1587 -124 -186 0
-1587 -77 0
-1587 -130 301 0
-1587 -130 -25 0
-1587 -130 -189 0
-1587 -130 -190 0
-1587 -130 -191 0
-1587 -84 0
-1587 -136 308 0
-1587 -136 -32 0
-1587 -136 -194 0
-1587 -136 -195 0
-1587 -136 -196 0
-1587 -91 0
-1587 284 0
-1588 118 0
-1588 122 123 0
-1588 -124 294 0
-1588 -124 -19 0
-1588 -124 -185 0
-1588 -124 -186 0
-1588 -78 0
-1588 -130 301 0
-1588 -130 -26 0
-1588 -130 -190 0
-1588 -130 -191 0
-1588 -85 0
-1588 -136 308 0
-1588 -136 -33 0
-1588 -136 -195 0
-1588 -136 -196 0
-1588 -92 0
-1588 285 0
-1589 118 0
-1589 123 0
-1589 -124 294 0
-1589 -124 -20 0
-1589 -124 -186 0
-1589 -79 0
-1589 -130 301 0
-1589 -130 -27 0
-1589 -130 -191 0
-1589 -86 0
-1589 -136 308 0
-1589 -136 -34 0
-1589 -136 -196 0
-1589 -93 0
-1589 286 0
-1590 118 0
-1590 173 0
-1590 -177 294 0
-1590 -177 -15 0
-1590 -177 -131 0
-1590 -74 0
-1590 -182 301 0
-1590 -182 -22 0
-1590 -182 -137 0
-1590 -81 0
-1590 -187 308 0
-1590 -187 -29 0
-1590 -187 -143 0
-1590 -88 0
-1590 281 0
-1591 118 0
-1591 173 174 0
-1591 -177 294 0
-1591 -177 -16 0
-1591 -177 -131 0
-1591 -177 -132 0
-1591 -75 0
-1591 -182 301 0
-1591 -182 -23 0
-1591 -182 -137 0
-1591 -182 -138 0
-1591 -82 0
-1591 -187 308 0
-1591 -187 -30 0
-1591 -187 -143 0
-1591 -187 -144 0
-1591 -89 0
-1591 282 0
-1592 118 0
-1592 173 174 175 0
-1592 -177 294 0
-1592 -177 -17 0
-1592 -177 -132 0
-1592 -177 -133 0
-1592 -76 0
-1592 -182 301 0
-1592 -182 -24 0
-1592 -182 -138 0
-1592 -182 -139 0
-1592 -83 0
-1592 -187 308 0
-1592 -187 -31 0
-1592 -187 -144 0
-1592 -187 -145 0
-1592 -90 0
-1592 283 0
-1593 118 0
-1593 174 175 176 0
-1593 -177 294 0
-1593 -177 -18 0
-1593 -177 -133 0
-1593 -177 -134 0
-1593 -77 0
-1593 -182 301 0
-1593 -182 -25 0
-1593 -182 -139 0
-1593 -182 -140 0
-1593 -84 0
-1593 -187 308 0
-1593 -187 -32 0
-1593 -187 -145 0
-1593 -187 -146 0
-1593 -91 0
-1593 284 0
-1594 118 0
-1594 175 176 0
-1594 -177 294 0
-1594 -177 -19 0
-1594 -177 -134 0
-1594 -177 -135 0
-1594 -78 0
-1594 -182 301 0
-1594 -182 -26 0
-1594 -182 -140 0
-1594 -182 -141 0
-1594 -85 0
-1594 -187 308 0
-1594 -187 -33 0
-1594 -187 -146 0
-1594 -187 -147 0
-1594 -92 0
-1594 285 0
-1595 118 0
-1595 176 0
-1595 -177 294 0
-1595 -177 -20 0
-1595 -177 -135 0
-1595 -79 0
-1595 -182 301 0
-1595 -182 -27 0
-1595 -182 -141 0
-1595 -86 0
-1595 -187 308 0
-1595 -187 -34 0
-1595 -187 -147 0
-1595 -93 0
-1595 286 0
-1596 172 0
-1596 -125 0
-1596 -8 0
-1596 -9 0
-1596 -67 0
-1596 -68 0
-1596 -178 0
-1596 -179 0
-1596 340 0
-1596 345 0
-1597 172 0
-1597 -126 0
-1597 -9 0
-1597 -10 0
-1597 -68 0
-1597 -69 0
-1597 -178 0
-1597 -179 0
-1597 -180 0
-1597 341 0
-1597 345 0
-1598 172 0
-1598 -127 0
-1598 -10 0
-1598 -11 0
-1598 -69 0
-1598 -70 0
-1598 -178 0
-1598 -179 0
-1598 -180 0
-1598 -181 0
-1598 342 0
-1598 345 0
-1599 172 0
-1599 -128 0
-1599 -11 0
-1599 -12 0
-1599 -70 0
-1599 -71 0
-1599 -179 0
-1599 -180 0
-1599 -181 0
-1599 343 0
-1599 345 0
-1600 172 0
-1600 -129 0
-1600 -12 0
-1600 -13 0
-1600 -71 0
-1600 -72 0
-1600 -180 0
-1600 -181 0
-1600 344 0
-1600 345 0
-1601 172 0
-1601 1 2 0
-1601 -7 351 0
-1601 -7 -74 0
-1601 -7 -75 0
-1601 -7 -183 0
-1601 -7 -184 0
-1601 -131 0
-1601 -14 357 0
-1601 -14 -81 0
-1601 -14 -82 0
-1601 -14 -188 0
-1601 -14 -189 0
-1601 -137 0
-1601 -21 363 0
-1601 -21 -88 0
-1601 -21 -89 0
-1601 -21 -193 0
-1601 -21 -194 0
-1601 -143 0
-1601 340 0
-1602 172 0
-1602 2 3 0
-1602 -7 351 0
-1602 -7 -75 0
-1602 -7 -76 0
-1602 -7 -183 0
-1602 -7 -184 0
-1602 -7 -185 0
-1602 -132 0
-1602 -14 357 0
-1602 -14 -82 0
-1602 -14 -83 0
-1602 -14 -188 0
-1602 -14 -189 0
-1602 -14 -190 0
-1602 -138 0
-1602 -21 363 0
-1602 -21 -89 0
-1602 -21 -90 0
-1602 -21 -193 0
-1602 -21 -194 0
-1602 -21 -195 0
-1602 -144 0
-1602 341 0
-1603 172 0
-1603 3 4 0
-1603 -7 351 0
-1603 -7 -76 0
-1603 -7 -77 0
-1603 -7 -183 0
-1603 -7 -184 0
-1603 -7 -185 0
-1603 -7 -186 0
-1603 -133 0
-1603 -14 357 0
-1603 -14 -83 0
-1603 -14 -84 0
-1603 -14 -188 0
-1603 -14 -189 0
-1603 -14 -190 0
-1603 -14 -191 0
-1603 -139 0
-1603 -21 363 0
-1603 -21 -90 0
-1603 -21 -91 0
-1603 -21 -193 0
-1603 -21 -194 0
-1603 -21 -195 0
-1603 -21 -196 0
-1603 -145 0
-1603 342 0
-1604 172 0
-1604 4 5 0
-1604 -7 351 0
-1604 -7 -77 0
-1604 -7 -78 0
-1604 -7 -184 0
-1604 -7 -185 0
-1604 -7 -186 0
-1604 -134 0
-1604 -14 357 0
-1604 -14 -84 0
-1604 -14 -85 0
-1604 -14 -189 0
-1604 -14 -190 0
-1604 -14 -191 0
-1604 -140 0
-1604 -21 363 0
-1604 -21 -91 0
-1604 -21 -92 0
-1604 -21 -194 0
-1604 -21 -195 0
-1604 -21 -196 0
-1604 -146 0
-1604 343 0
-1605 172 0
-1605 5 6 0
-1605 -7 351 0
-1605 -7 -78 0
-1605 -7 -79 0
-1605 -7 -185 0
-1605 -7 -186 0
-1605 -135 0
-1605 -14 357 0
-1605 -14 -85 0
-1605 -14 -86 0
-1605 -14 -190 0
-1605 -14 -191 0
-1605 -141 0
-1605 -21 363 0
-1605 -21 -92 0
-1605 -21 -93 0
-1605 -21 -195 0
-1605 -21 -196 0
-1605 -147 0
-1605 344 0
-1606 172 0
-1606 60 61 0
-1606 -66 351 0
-1606 -66 -15 0
-1606 -66 -16 0
-1606 -66 -183 0
-1606 -66 -184 0
-1606 -131 0
-1606 -73 357 0
-1606 -73 -22 0
-1606 -73 -23 0
-1606 -73 -188 0
-1606 -73 -189 0
-1606 -137 0
-1606 -80 363 0
-1606 -80 -29 0
-1606 -80 -30 0
-1606 -80 -193 0
-1606 -80 -194 0
-1606 -143 0
-1606 340 0
-1607 172 0
-1607 61 62 0
-1607 -66 351 0
-1607 -66 -16 0
-1607 -66 -17 0
-1607 -66 -183 0
-1607 -66 -184 0
-1607 -66 -185 0
-1607 -132 0
-1607 -73 357 0
-1607 -73 -23 0
-1607 -73 -24 0
-1607 -73 -188 0
-1607 -73 -189 0
-1607 -73 -190 0
-1607 -138 0
-1607 -80 363 0
-1607 -80 -30 0
-1607 -80 -31 0
-1607 -80 -193 0
-1607 -80 -194 0
-1607 -80 -195 0
-1607 -144 0
-1607 341 0
-1608 172 0
-1608 62 63 0
-1608 -66 351 0
-1608 -66 -17 0
-1608 -66 -18 0
-1608 -66 -183 0
-1608 -66 -184 0
-1608 -66 -185 0
-1608 -66 -186 0
-1608 -133 0
-1608 -73 357 0
-1608 -73 -24 0
-1608 -73 -25 0
-1608 -73 -188 0
-1608 -73 -189 0
-1608 -73 -190 0
-1608 -73 -191 0
-1608 -139 0
-1608 -80 363 0
-1608 -80 -31 0
-1608 -80 -32 0
-1608 -80 -193 0
-1608 -80 -194 0
-1608 -80 -195 0
-1608 -80 -196 0
-1608 -145 0
-1608 342 0
-1609 172 0
-1609 63 64 0
-1609 -66 351 0
-1609 -66 -18 0
-1609 -66 -19 0
-1609 -66 -184 0
-1609 -66 -185 0
-1609 -66 -186 0
-1609 -134 0
-1609 -73 357 0
-1609 -73 -25 0
-1609 -73 -26 0
-1609 -73 -189 0
-1609 -73 -190 0
-1609 -73 -191 0
-1609 -140 0
-1609 -80 363 0
-1609 -80 -32 0
-1609 -80 -33 0
-1609 -80 -194 0
-1609 -80 -195 0
-1609 -80 -196 0
-1609 -146 0
-1609 343 0
-1610 172 0
-1610 64 65 0
-1610 -66 351 0
-1610 -66 -19 0
-1610 -66 -20 0
-1610 -66 -185 0
-1610 -66 -186 0
-1610 -135 0
-1610 -73 357 0
-1610 -73 -26 0
-1610 -73 -27 0
-1610 -73 -190 0
-1610 -73 -191 0
-1610 -141 0
-1610 -80 363 0
-1610 -80 -33 0
-1610 -80 -34 0
-1610 -80 -195 0
-1610 -80 -196 0
-1610 -147 0
-1610 344 0
-1611 172 0
-1611 173 174 0
-1611 -177 351 0
-1611 -177 -15 0
-1611 -177 -16 0
-1611 -177 -74 0
-1611 -177 -75 0
-1611 -131 0
-1611 -182 357 0
-1611 -182 -22 0
-1611 -182 -23 0
-1611 -182 -81 0
-1611 -182 -82 0
-1611 -137 0
-1611 -187 363 0
-1611 -187 -29 0
-1611 -187 -30 0
-1611 -187 -88 0
-1611 -187 -89 0
-1611 -143 0
-1611 340 0
-1612 172 0
-1612 173 174 175 0
-1612 -177 351 0
-1612 -177 -16 0
-1612 -177 -17 0
-1612 -177 -75 0
-1612 -177 -76 0
-1612 -132 0
-1612 -182 357 0
-1612 -182 -23 0
-1612 -182 -24 0
-1612 -182 -82 0
-1612 -182 -83 0
-1612 -138 0
-1612 -187 363 0
-1612 -187 -30 0
-1612 -187 -31 0
-1612 -187 -89 0
-1612 -187 -90 0
-1612 -144 0
-1612 341 0
-1613 172 0
-1613 173 174 175 176 0
-1613 -177 351 0
-1613 -177 -17 0
-1613 -177 -18 0
-1613 -177 -76 0
-1613 -177 -77 0
-1613 -133 0
-1613 -182 357 0
-1613 -182 -24 0
-1613 -182 -25 0
-1613 -182 -83 0
-1613 -182 -84 0
-1613 -139 0
-1613 -187 363 0
-1613 -187 -31 0
-1613 -187 -32 0
-1613 -187 -90 0
-1613 -187 -91 0
-1613 -145 0
-1613 342 0
-1614 172 0
-1614 174 175 176 0
-1614 -177 351 0
-1614 -177 -18 0
-1614 -177 -19 0
-1614 -177 -77 0
-1614 -177 -78 0
-1614 -134 0
-1614 -182 357 0
-1614 -182 -25 0
-1614 -182 -26 0
-1614 -182 -84 0
-1614 -182 -85 0
-1614 -140 0
-1614 -187 363 0
-1614 -187 -32 0
-1614 -187 -33 0
-1614 -187 -91 0
-1614 -187 -92 0
-1614 -146 0
-1614 343 0
-1615 172 0
-1615 175 176 0
-1615 -177 351 0
-1615 -177 -19 0
-1615 -177 -20 0
-1615 -177 -78 0
-1615 -177 -79 0
-1615 -135 0
-1615 -182 357 0
-1615 -182 -26 0
-1615 -182 -27 0
-1615 -182 -85 0
-1615 -182 -86 0
-1615 -141 0
-1615 -187 363 0
-1615 -187 -33 0
-1615 -187 -34 0
-1615 -187 -92 0
-1615 -187 -93 0
-1615 -147 0
-1615 344 0
-1616 221 0
-1616 -178 0
-1616 -8 0
-1616 -9 0
-1616 -10 0
-1616 -67 0
-1616 -68 0
-1616 -69 0
-1616 -125 0
-1616 -126 0
-1616 -127 0
-1616 394 0
-1616 398 0
-1617 221 0
-1617 -179 0
-1617 -9 0
-1617 -10 0
-1617 -11 0
-1617 -68 0
-1617 -69 0
-1617 -70 0
-1617 -125 0
-1617 -126 0
-1617 -127 0
-1617 -128 0
-1617 395 0
-1617 398 0
-1618 221 0
-1618 -180 0
-1618 -10 0
-1618 -11 0
-1618 -12 0
-1618 -69 0
-1618 -70 0
-1618 -71 0
-1618 -126 0
-1618 -127 0
-1618 -128 0
-1618 -129 0
-1618 396 0
-1618 398 0
-1619 221 0
-1619 -181 0
-1619 -11 0
-1619 -12 0
-1619 -13 0
-1619 -70 0
-1619 -71 0
-1619 -72 0
-1619 -127 0
-1619 -128 0
-1619 -129 0
-1619 397 0
-1619 398 0
-1620 221 0
-1620 1 2 3 0
-1620 -7 403 0
-1620 -7 -74 0
-1620 -7 -75 0
-1620 -7 -76 0
-1620 -7 -131 0
-1620 -7 -132 0
-1620 -7 -133 0
-1620 -183 0
-1620 -14 408 0
-1620 -14 -81 0
-1620 -14 -82 0
-1620 -14 -83 0
-1620 -14 -137 0
-1620 -14 -138 0
-1620 -14 -139 0
-1620 -188 0
-1620 -21 413 0
-1620 -21 -88 0
-1620 -21 -89 0
-1620 -21 -90 0
-1620 -21 -143 0
-1620 -21 -144 0
-1620 -21 -145 0
-1620 -193 0
-1620 394 0
-1621 221 0
-1621 2 3 4 0
-1621 -7 403 0
-1621 -7 -75 0
-1621 -7 -76 0
-1621 -7 -77 0
-1621 -7 -131 0
-1621 -7 -132 0
-1621 -7 -133 0
-1621 -7 -134 0
-1621 -184 0
-1621 -14 408 0
-1621 -14 -82 0
-1621 -14 -83 0
-1621 -14 -84 0
-1621 -14 -137 0
-1621 -14 -138 0
-1621 -14 -139 0
-1621 -14 -140 0
-1621 -189 0
-1621 -21 413 0
-1621 -21 -89 0
-1621 -21 -90 0
-1621 -21 -91 0
-1621 -21 -143 0
-1621 -21 -144 0
-1621 -21 -145 0
-1621 -21 -146 0
-1621 -194 0
-1621 395 0
-1622 221 0
-1622 3 4 5 0
-1622 -7 403 0
-1622 -7 -76 0
-1622 -7 -77 0
-1622 -7 -78 0
-1622 -7 -132 0
-1622 -7 -133 0
-1622 -7 -134 0
-1622 -7 -135 0
-1622 -185 0
-1622 -14 408 0
-1622 -14 -83 0
-1622 -14 -84 0
-1622 -14 -85 0
-1622 -14 -138 0
-1622 -14 -139 0
-1622 -14 -140 0
-1622 -14 -141 0
-1622 -190 0
-1622 -21 413 0
-1622 -21 -90 0
-1622 -21 -91 0
-1622 -21 -92 0
-1622 -21 -144 0
-1622 -21 -145 0
-1622 -21 -146 0
-1622 -21 -147 0
-1622 -195 0
-1622 396 0
-1623 221 0
-1623 4 5 6 0
-1623 -7 403 0
-1623 -7 -77 0
-1623 -7 -78 0
-1623 -7 -79 0
-1623 -7 -133 0
-1623 -7 -134 0
-1623 -7 -135 0
-1623 -186 0
-1623 -14 408 0
-1623 -14 -84 0
-1623 -14 -85 0
-1623 -14 -86 0
-1623 -14 -139 0
-1623 -14 -140 0
-1623 -14 -141 0
-1623 -191 0
-1623 -21 413 0
-1623 -21 -91 0
-1623 -21 -92 0
-1623 -21 -93 0
-1623 -21 -145 0
-1623 -21 -146 0
-1623 -21 -147 0
-1623 -196 0
-1623 397 0
-1624 221 0
-1624 60 61 62 0
-1624 -66 403 0
-1624 -66 -15 0
-1624 -66 -16 0
-1624 -66 -17 0
-1624 -66 -131 0
-1624 -66 -132 0
-1624 -66 -133 0
-1624 -183 0
-1624 -73 408 0
-1624 -73 -22 0
-1624 -73 -23 0
-1624 -73 -24 0
-1624 -73 -137 0
-1624 -73 -138 0
-1624 -73 -139 0
-1624 -188 0
-1624 -80 413 0
-1624 -80 -29 0
-1624 -80 -30 0
-1624 -80 -31 0
-1624 -80 -143 0
-1624 -80 -144 0
-1624 -80 -145 0
-1624 -193 0
-1624 394 0
-1625 221 0
-1625 61 62 63 0
-1625 -66 403 0
-1625 -66 -16 0
-1625 -66 -17 0
-1625 -66 -18 0
-1625 -66 -131 0
-1625 -66 -132 0
-1625 -66 -133 0
-1625 -66 -134 0
-1625 -184 0
-1625 -73 408 0
-1625 -73 -23 0
-1625 -73 -24 0
-1625 -73 -25 0
-1625 -73 -137 0
-1625 -73 -138 0
-1625 -73 -139 0
-1625 -73 -140 0
-1625 -189 0
-1625 -80 413 0
-1625 -80 -30 0
-1625 -80 -31 0
-1625 -80 -32 0
-1625 -80 -143 0
-1625 -80 -144 0
-1625 -80 -145 0
-1625 -80 -146 0
-1625 -194 0
-1625 395 0
-1626 221 0
-1626 62 63 64 0
-1626 -66 403 0
-1626 -66 -17 0
-1626 -66 -18 0
-1626 -66 -19 0
-1626 -66 -132 0
-1626 -66 -133 0
-1626 -66 -134 0
-1626 -66 -135 0
-1626 -185 0
-1626 -73 408 0
-1626 -73 -24 0
-1626 -73 -25 0
-1626 -73 -26 0
-1626 -73 -138 0
-1626 -73 -139 0
-1626 -73 -140 0
-1626 -73 -141 0
-1626 -190 0
-1626 -80 413 0
-1626 -80 -31 0
-1626 -80 -32 0
-1626 -80 -33 0
-1626 -80 -144 0
-1626 -80 -145 0
-1626 -80 -146 0
-1626 -80 -147 0
-1626 -195 0
-1626 396 0
-1627 221 0
-1627 63 64 65 0
-1627 -66 403 0
-1627 -66 -18 0
-1627 -66 -19 0
-1627 -66 -20 0
-1627 -66 -133 0
-1627 -66 -134 0
-1627 -66 -135 0
-1627 -186 0
-1627 -73 408 0
-1627 -73 -25 0
-1627 -73 -26 0
-1627 -73 -27 0
-1627 -73 -139 0
-1627 -73 -140 0
-1627 -73 -141 0
-1627 -191 0
-1627 -80 413 0
-1627 -80 -32 0
-1627 -80 -33 0
-1627 -80 -34 0
-1627 -80 -145 0
-1627 -80 -146 0
-1627 -80 -147 0
-1627 -196 0
-1627 397 0
-1628 221 0
-1628 119 120 121 0
-1628 -124 403 0
-1628 -124 -15 0
-1628 -124 -16 0
-1628 -124 -17 0
-1628 -124 -74 0
-1628 -124 -75 0
-1628 -124 -76 0
-1628 -183 0
-1628 -130 408 0
-1628 -130 -22 0
-1628 -130 -23 0
-1628 -130 -24 0
-1628 -130 -81 0
-1628 -130 -82 0
-1628 -130 -83 0
-1628 -188 0
-1628 -136 413 0
-1628 -136 -29 0
-1628 -136 -30 0
-1628 -136 -31 0
-1628 -136 -88 0
-1628 -136 -89 0
-1628 -136 -90 0
-1628 -193 0
-1628 394 0
-1629 221 0
-1629 119 120 121 122 0
-1629 -124 403 0
-1629 -124 -16 0
-1629 -124 -17 0
-1629 -124 -18 0
-1629 -124 -75 0
-1629 -124 -76 0
-1629 -124 -77 0
-1629 -184 0
-1629 -130 408 0
-1629 -130 -23 0
-1629 -130 -24 0
-1629 -130 -25 0
-1629 -130 -82 0
-1629 -130 -83 0
-1629 -130 -84 0
-1629 -189 0
-1629 -136 413 0
-1629 -136 -30 0
-1629 -136 -31 0
-1629 -136 -32 0
-1629 -136 -89 0
-1629 -136 -90 0
-1629 -136 -91 0
-1629 -194 0
-1629 395 0
-1630 221 0
-1630 120 121 122 123 0
-1630 -124 403 0
-1630 -124 -17 0
-1630 -124 -18 0
-1630 -124 -19 0
-1630 -124 -76 0
-1630 -124 -77 0
-1630 -124 -78 0
-1630 -185 0
-1630 -130 408 0
-1630 -130 -24 0
-1630 -130 -25 0
-1630 -130 -26 0
-1630 -130 -83 0
-1630 -130 -84 0
-1630 -130 -85 0
-1630 -190 0
-1630 -136 413 0
-1630 -136 -31 0
-1630 -136 -32 0
-1630 -136 -33 0
-1630 -136 -90 0
-1630 -136 -91 0
-1630 -136 -92 0
-1630 -195 0
-1630 396 0
-1631 221 0
-1631 121 122 123 0
-1631 -124 403 0
-1631 -124 -18 0
-1631 -124 -19 0
-1631 -124 -20 0
-1631 -124 -77 0
-1631 -124 -78 0
-1631 -124 -79 0
-1631 -186 0
-1631 -130 408 0
-1631 -130 -25 0
-1631 -130 -26 0
-1631 -130 -27 0
-1631 -130 -84 0
-1631 -130 -85 0
-1631 -130 -86 0
-1631 -191 0
-1631 -136 413 0
-1631 -136 -32 0
-1631 -136 -33 0
-1631 -136 -34 0
-1631 -136 -91 0
-1631 -136 -92 0
-1631 -136 -93 0
-1631 -196 0
-1631 397 0
-1632 280 0
-1632 -229 0
-1632 -288 0
-1632 -346 0
-1632 -399 0
-1632 443 0
-1632 449 0
-1633 280 0
-1633 -230 0
-1633 -289 0
-1633 -346 0
-1633 -347 0
-1633 -399 0
-1633 -400 0
-1633 444 0
-1633 449 0
-1634 280 0
-1634 -231 0
-1634 -290 0
-1634 -347 0
-1634 -348 0
-1634 -399 0
-1634 -400 0
-1634 -401 0
-1634 445 0
-1634 449 0
-1635 280 0
-1635 -232 0
-1635 -291 0
-1635 -348 0
-1635 -349 0
-1635 -400 0
-1635 -401 0
-1635 -402 0
-1635 446 0
-1635 449 0
-1636 280 0
-1636 -233 0
-1636 -292 0
-1636 -349 0
-1636 -350 0
-1636 -401 0
-1636 -402 0
-1636 447 0
-1636 449 0
-1637 280 0
-1637 -234 0
-1637 -293 0
-1637 -350 0
-1637 -402 0
-1637 448 0
-1637 449 0
-1638 280 0
-1638 281 0
-1638 -287 456 0
-1638 -287 -352 0
-1638 -287 -404 0
-1638 -236 0
-1638 -294 463 0
-1638 -294 -358 0
-1638 -294 -409 0
-1638 -243 0
-1638 -301 470 0
-1638 -301 -364 0
-1638 -301 -414 0
-1638 -250 0
-1638 443 0
-1639 280 0
-1639 282 0
-1639 -287 456 0
-1639 -287 -352 0
-1639 -287 -353 0
-1639 -287 -404 0
-1639 -287 -405 0
-1639 -237 0
-1639 -294 463 0
-1639 -294 -358 0
-1639 -294 -359 0
-1639 -294 -409 0
-1639 -294 -410 0
-1639 -244 0
-1639 -301 470 0
-1639 -301 -364 0
-1639 -301 -365 0
-1639 -301 -414 0
-1639 -301 -415 0
-1639 -251 0
-1639 444 0
-1640 280 0
-1640 283 0
-1640 -287 456 0
-1640 -287 -353 0
-1640 -287 -354 0
-1640 -287 -404 0
-1640 -287 -405 0
-1640 -287 -406 0
-1640 -238 0
-1640 -294 463 0
-1640 -294 -359 0
-1640 -294 -360 0
-1640 -294 -409 0
-1640 -294 -410 0
-1640 -294 -411 0
-1640 -245 0
-1640 -301 470 0
-1640 -301 -365 0
-1640 -301 -366 0
-1640 -301 -414 0
-1640 -301 -415 0
-1640 -301 -416 0
-1640 -252 0
-1640 445 0
-1641 280 0
-1641 284 0
-1641 -287 456 0
-1641 -287 -354 0
-1641 -287 -355 0
-1641 -287 -405 0
-1641 -287 -406 0
-1641 -287 -407 0
-1641 -239 0
-1641 -294 463 0
-1641 -294 -360 0
-1641 -294 -361 0
-1641 -294 -410 0
-1641 -294 -411 0
-1641 -294 -412 0
-1641 -246 0
-1641 -301 470 0
-1641 -301 -366 0
-1641 -301 -367 0
-1641 -301 -415 0
-1641 -301 -416 0
-1641 -301 -417 0
-1641 -253 0
-1641 446 0
-1642 280 0
-1642 285 0
-1642 -287 456 0
-1642 -287 -355 0
-1642 -287 -356 0
-1642 -287 -406 0
-1642 -287 -407 0
-1642 -240 0
-1642 -294 463 0
-1642 -294 -361 0
-1642 -294 -362 0
-1642 -294 -411 0
-1642 -294 -412 0
-1642 -247 0
-1642 -301 470 0
-1642 -301 -367 0
-1642 -301 -368 0
-1642 -301 -416 0
-1642 -301 -417 0
-1642 -254 0
-1642 447 0
-1643 280 0
-1643 286 0
-1643 -287 456 0
-1643 -287 -356 0
-1643 -287 -407 0
-1643 -241 0
-1643 -294 463 0
-1643 -294 -362 0
-1643 -294 -412 0
-1643 -248 0
-1643 -301 470 0
-1643 -301 -368 0
-1643 -301 -417 0
-1643 -255 0
-1643 448 0
-1644 280 0
-1644 340 0
-1644 -345 456 0
-1644 -345 -295 0
-1644 -345 -404 0
-1644 -236 0
-1644 -351 463 0
-1644 -351 -302 0
-1644 -351 -409 0
-1644 -243 0
-1644 -357 470 0
-1644 -357 -309 0
-1644 -357 -414 0
-1644 -250 0
-1644 443 0
-1645 280 0
-1645 340 341 0
-1645 -345 456 0
-1645 -345 -296 0
-1645 -345 -404 0
-1645 -345 -405 0
-1645 -237 0
-1645 -351 463 0
-1645 -351 -303 0
-1645 -351 -409 0
-1645 -351 -410 0
-1645 -244 0
-1645 -357 470 0
-1645 -357 -310 0
-1645 -357 -414 0
-1645 -357 -415 0
-1645 -251 0
-1645 444 0
-1646 280 0
-1646 341 342 0
-1646 -345 456 0
-1646 -345 -297 0
-1646 -345 -404 0
-1646 -345 -405 0
-1646 -345 -406 0
-1646 -238 0
-1646 -351 463 0
-1646 -351 -304 0
-1646 -351 -409 0
-1646 -351 -410 0
-1646 -351 -411 0
-1646 -245 0
-1646 -357 470 0
-1646 -357 -311 0
-1646 -357 -414 0
-1646 -357 -415 0
-1646 -357 -416 0
-1646 -252 0
-1646 445 0
-1647 280 0
-1647 342 343 0
-1647 -345 456 0
-1647 -345 -298 0
-1647 -345 -405 0
-1647 -345 -406 0
-1647 -345 -407 0
-1647 -239 0
-1647 -351 463 0
-1647 -351 -305 0
-1647 -351 -410 0
-1647 -351 -411 0
-1647 -351 -412 0
-1647 -246 0
-1647 -357 470 0
-1647 -357 -312 0
-1647 -357 -415 0
-1647 -357 -416 0
-1647 -357 -417 0
-1647 -253 0
-1647 446 0
-1648 280 0
-1648 343 344 0
-1648 -345 456 0
-1648 -345 -299 0
-1648 -345 -406 0
-1648 -345 -407 0
-1648 -240 0
-1648 -351 463 0
-1648 -351 -306 0
-1648 -351 -411 0
-1648 -351 -412 0
-1648 -247 0
-1648 -357 470 0
-1648 -357 -313 0
-1648 -357 -416 0
-1648 -357 -417 0
-1648 -254 0
-1648 447 0
-1649 280 0
-1649 344 0
-1649 -345 456 0
-1649 -345 -300 0
-1649 -345 -407 0
-1649 -241 0
-1649 -351 463 0
-1649 -351 -307 0
-1649 -351 -412 0
-1649 -248 0
-1649 -357 470 0
-1649 -357 -314 0
-1649 -357 -417 0
-1649 -255 0
-1649 448 0
-1650 280 0
-1650 394 0
-1650 -398 456 0
-1650 -398 -295 0
-1650 -398 -352 0
-1650 -236 0
-1650 -403 463 0
-1650 -403 -302 0
-1650 -403 -358 0
-1650 -243 0
-1650 -408 470 0
-1650 -408 -309 0
-1650 -408 -364 0
-1650 -250 0
-1650 443 0
-1651 280 0
-1651 394 395 0
-1651 -398 456 0
-1651 -398 -296 0
-1651 -398 -352 0
-1651 -398 -353 0
-1651 -237 0
-1651 -403 463 0
-1651 -403 -303 0
-1651 -403 -358 0
-1651 -403 -359 0
-1651 -244 0
-1651 -408 470 0
-1651 -408 -310 0
-1651 -408 -364 0
-1651 -408 -365 0
-1651 -251 0
-1651 444 0
-1652 280 0
-1652 394 395 396 0
-1652 -398 456 0
-1652 -398 -297 0
-1652 -398 -353 0
-1652 -398 -354 0
-1652 -238 0
-1652 -403 463 0
-1652 -403 -304 0
-1652 -403 -359 0
-1652 -403 -360 0
-1652 -245 0
-1652 -408 470 0
-1652 -408 -311 0
-1652 -408 -365 0
-1652 -408 -366 0
-1652 -252 0
-1652 445 0
-1653 280 0
-1653 395 396 397 0
-1653 -398 456 0
-1653 -398 -298 0
-1653 -398 -354 0
-1653 -398 -355 0
-1653 -239 0
-1653 -403 463 0
-1653 -403 -305 0
-1653 -403 -360 0
-1653 -403 -361 0
-1653 -246 0
-1653 -408 470 0
-1653 -408 -312 0
-1653 -408 -366 0
-1653 -408 -367 0
-1653 -253 0
-1653 446 0
-1654 280 0
-1654 396 397 0
-1654 -398 456 0
-1654 -398 -299 0
-1654 -398 -355 0
-1654 -398 -356 0
-1654 -240 0
-1654 -403 463 0
-1654 -403 -306 0
-1654 -403 -361 0
-1654 -403 -362 0
-1654 -247 0
-1654 -408 470 0
-1654 -408 -313 0
-1654 -408 -367 0
-1654 -408 -368 0
-1654 -254 0
-1654 447 0
-1655 280 0
-1655 397 0
-1655 -398 456 0
-1655 -398 -300 0
-1655 -398 -356 0
-1655 -241 0
-1655 -403 463 0
-1655 -403 -307 0
-1655 -403 -362 0
-1655 -248 0
-1655 -408 470 0
-1655 -408 -314 0
-1655 -408 -368 0
-1655 -255 0
-1655 448 0
-1656 339 0
-1656 -288 0
-1656 -229 0
-1656 -346 0
-1656 -399 0
-1656 502 0
-1656 508 0
-1657 339 0
-1657 -289 0
-1657 -230 0
-1657 -346 0
-1657 -347 0
-1657 -399 0
-1657 -400 0
-1657 503 0
-1657 508 0
-1658 339 0
-1658 -290 0
-1658 -231 0
-1658 -347 0
-1658 -348 0
-1658 -399 0
-1658 -400 0
-1658 -401 0
-1658 504 0
-1658 508 0
-1659 339 0
-1659 -291 0
-1659 -232 0
-1659 -348 0
-1659 -349 0
-1659 -400 0
-1659 -401 0
-1659 -402 0
-1659 505 0
-1659 508 0
-1660 339 0
-1660 -292 0
-1660 -233 0
-1660 -349 0
-1660 -350 0
-1660 -401 0
-1660 -402 0
-1660 506 0
-1660 508 0
-1661 339 0
-1661 -293 0
-1661 -234 0
-1661 -350 0
-1661 -402 0
-1661 507 0
-1661 508 0
-1662 339 0
-1662 222 0
-1662 -228 515 0
-1662 -228 -352 0
-1662 -228 -404 0
-1662 -295 0
-1662 -235 522 0
-1662 -235 -358 0
-1662 -235 -409 0
-1662 -302 0
-1662 -242 529 0
-1662 -242 -364 0
-1662 -242 -414 0
-1662 -309 0
-1662 502 0
-1663 339 0
-1663 223 0
-1663 -228 515 0
-1663 -228 -352 0
-1663 -228 -353 0
-1663 -228 -404 0
-1663 -228 -405 0
-1663 -296 0
-1663 -235 522 0
-1663 -235 -358 0
-1663 -235 -359 0
-1663 -235 -409 0
-1663 -235 -410 0
-1663 -303 0
-1663 -242 529 0
-1663 -242 -364 0
-1663 -242 -365 0
-1663 -242 -414 0
-1663 -242 -415 0
-1663 -310 0
-1663 503 0
-1664 339 0
-1664 224 0
-1664 -228 515 0
-1664 -228 -353 0
-1664 -228 -354 0
-1664 -228 -404 0
-1664 -228 -405 0
-1664 -228 -406 0
-1664 -297 0
-1664 -235 522 0
-1664 -235 -359 0
-1664 -235 -360 0
-1664 -235 -409 0
-1664 -235 -410 0
-1664 -235 -411 0
-1664 -304 0
-1664 -242 529 0
-1664 -242 -365 0
-1664 -242 -366 0
-1664 -242 -414 0
-1664 -242 -415 0
-1664 -242 -416 0
-1664 -311 0
-1664 504 0
-1665 339 0
-1665 225 0
-1665 -228 515 0
-1665 -228 -354 0
-1665 -228 -355 0
-1665 -228 -405 0
-1665 -228 -406 0
-1665 -228 -407 0
-1665 -298 0
-1665 -235 522 0
-1665 -235 -360 0
-1665 -235 -361 0
-1665 -235 -410 0
-1665 -235 -411 0
-1665 -235 -412 0
-1665 -305 0
-1665 -242 529 0
-1665 -242 -366 0
-1665 -242 -367 0
-1665 -242 -415 0
-1665 -242 -416 0
-1665 -242 -417 0
-1665 -312 0
-1665 505 0
-1666 339 0
-1666 226 0
-1666 -228 515 0
-1666 -228 -355 0
-1666 -228 -356 0
-1666 -228 -406 0
-1666 -228 -407 0
-1666 -299 0
-1666 -235 522 0
-1666 -235 -361 0
-1666 -235 -362 0
-1666 -235 -411 0
-1666 -235 -412 0
-1666 -306 0
-1666 -242 529 0
-1666 -242 -367 0
-1666 -242 -368 0
-1666 -242 -416 0
-1666 -242 -417 0
-1666 -313 0
-1666 506 0
-1667 339 0
-1667 227 0
-1667 -228 515 0
-1667 -228 -356 0
-1667 -228 -407 0
-1667 -300 0
-1667 -235 522 0
-1667 -235 -362 0
-1667 -235 -412 0
-1667 -307 0
-1667 -242 529 0
-1667 -242 -368 0
-1667 -242 -417 0
-1667 -314 0
-1667 507 0
-1668 339 0
-1668 340 0
-1668 -345 515 0
-1668 -345 -236 0
-1668 -345 -404 0
-1668 -295 0
-1668 -351 522 0
-1668 -351 -243 0
-1668 -351 -409 0
-1668 -302 0
-1668 -357 529 0
-1668 -357 -250 0
-1668 -357 -414 0
-1668 -309 0
-1668 502 0
-1669 339 0
-1669 340 341 0
-1669 -345 515 0
-1669 -345 -237 0
-1669 -345 -404 0
-1669 -345 -405 0
-1669 -296 0
-1669 -351 522 0
-1669 -351 -244 0
-1669 -351 -409 0
-1669 -351 -410 0
-1669 -303 0
-1669 -357 529 0
-1669 -357 -251 0
-1669 -357 -414 0
-1669 -357 -415 0
-1669 -310 0
-1669 503 0
-1670 339 0
-1670 341 342 0
-1670 -345 515 0
-1670 -345 -238 0
-1670 -345 -404 0
-1670 -345 -405 0
-1670 -345 -406 0
-1670 -297 0
-1670 -351 522 0
-1670 -351 -245 0
-1670 -351 -409 0
-1670 -351 -410 0
-1670 -351 -411 0
-1670 -304 0
-1670 -357 529 0
-1670 -357 -252 0
-1670 -357 -414 0
-1670 -357 -415 0
-1670 -357 -416 0
-1670 -311 0
-1670 504 0
-1671 339 0
-1671 342 343 0
-1671 -345 515 0
-1671 -345 -239 0
-1671 -345 -405 0
-1671 -345 -406 0
-1671 -345 -407 0
-1671 -298 0
-1671 -351 522 0
-1671 -351 -246 0
-1671 -351 -410 0
-1671 -351 -411 0
-1671 -351 -412 0
-1671 -305 0
-1671 -357 529 0
-1671 -357 -253 0
-1671 -357 -415 0
-1671 -357 -416 0
-1671 -357 -417 0
-1671 -312 0
-1671 505 0
-1672 339 0
-1672 343 344 0
-1672 -345 515 0
-1672 -345 -240 0
-1672 -345 -406 0
-1672 -345 -407 0
-1672 -299 0
-1672 -351 522 0
-1672 -351 -247 0
-1672 -351 -411 0
-1672 -351 -412 0
-1672 -306 0
-1672 -357 529 0
-1672 -357 -254 0
-1672 -357 -416 0
-1672 -357 -417 0
-1672 -313 0
-1672 506 0
-1673 339 0
-1673 344 0
-1673 -345 515 0
-1673 -345 -241 0
-1673 -345 -407 0
-1673 -300 0
-1673 -351 522 0
-1673 -351 -248 0
-1673 -351 -412 0
-1673 -307 0
-1673 -357 529 0
-1673 -357 -255 0
-1673 -357 -417 0
-1673 -314 0
-1673 507 0
-1674 339 0
-1674 394 0
-1674 -398 515 0
-1674 -398 -236 0
-1674 -398 -352 0
-1674 -295 0
-1674 -403 522 0
-1674 -403 -243 0
-1674 -403 -358 0
-1674 -302 0
-1674 -408 529 0
-1674 -408 -250 0
-1674 -408 -364 0
-1674 -309 0
-1674 502 0
-1675 339 0
-1675 394 395 0
-1675 -398 515 0
-1675 -398 -237 0
-1675 -398 -352 0
-1675 -398 -353 0
-1675 -296 0
-1675 -403 522 0
-1675 -403 -244 0
-1675 -403 -358 0
-1675 -403 -359 0
-1675 -303 0
-1675 -408 529 0
-1675 -408 -251 0
-1675 -408 -364 0
-1675 -408 -365 0
-1675 -310 0
-1675 503 0
-1676 339 0
-1676 394 395 396 0
-1676 -398 515 0
-1676 -398 -238 0
-1676 -398 -353 0
-1676 -398 -354 0
-1676 -297 0
-1676 -403 522 0
-1676 -403 -245 0
-1676 -403 -359 0
-1676 -403 -360 0
-1676 -304 0
-1676 -408 529 0
-1676 -408 -252 0
-1676 -408 -365 0
-1676 -408 -366 0
-1676 -311 0
-1676 504 0
-1677 339 0
-1677 395 396 397 0
-1677 -398 515 0
-1677 -398 -239 0
-1677 -398 -354 0
-1677 -398 -355 0
-1677 -298 0
-1677 -403 522 0
-1677 -403 -246 0
-1677 -403 -360 0
-1677 -403 -361 0
-1677 -305 0
-1677 -408 529 0
-1677 -408 -253 0
-1677 -408 -366 0
-1677 -408 -367 0
-1677 -312 0
-1677 505 0
-1678 339 0
-1678 396 397 0
-1678 -398 515 0
-1678 -398 -240 0
-1678 -398 -355 0
-1678 -398 -356 0
-1678 -299 0
-1678 -403 522 0
-1678 -403 -247 0
-1678 -403 -361 0
-1678 -403 -362 0
-1678 -306 0
-1678 -408 529 0
-1678 -408 -254 0
-1678 -408 -367 0
-1678 -408 -368 0
-1678 -313 0
-1678 506 0
-1679 339 0
-1679 397 0
-1679 -398 515 0
-1679 -398 -241 0
-1679 -398 -356 0
-1679 -300 0
-1679 -403 522 0
-1679 -403 -248 0
-1679 -403 -362 0
-1679 -307 0
-1679 -408 529 0
-1679 -408 -255 0
-1679 -408 -368 0
-1679 -314 0
-1679 507 0
-1680 393 0
-1680 -346 0
-1680 -229 0
-1680 -230 0
-1680 -288 0
-1680 -289 0
-1680 -399 0
-1680 -400 0
-1680 561 0
-1680 566 0
-1681 393 0
-1681 -347 0
-1681 -230 0
-1681 -231 0
-1681 -289 0
-1681 -290 0
-1681 -399 0
-1681 -400 0
-1681 -401 0
-1681 562 0
-1681 566 0
-1682 393 0
-1682 -348 0
-1682 -231 0
-1682 -232 0
-1682 -290 0
-1682 -291 0
-1682 -399 0
-1682 -400 0
-1682 -401 0
-1682 -402 0
-1682 563 0
-1682 566 0
-1683 393 0
-1683 -349 0
-1683 -232 0
-1683 -233 0
-1683 -291 0
-1683 -292 0
-1683 -400 0
-1683 -401 0
-1683 -402 0
-1683 564 0
-1683 566 0
-1684 393 0
-1684 -350 0
-1684 -233 0
-1684 -234 0
-1684 -292 0
-1684 -293 0
-1684 -401 0
-1684 -402 0
-1684 565 0
-1684 566 0
-1685 393 0
-1685 222 223 0
-1685 -228 572 0
-1685 -228 -295 0
-1685 -228 -296 0
-1685 -228 -404 0
-1685 -228 -405 0
-1685 -352 0
-1685 -235 578 0
-1685 -235 -302 0
-1685 -235 -303 0
-1685 -235 -409 0
-1685 -235 -410 0
-1685 -358 0
-1685 -242 584 0
-1685 -242 -309 0
-1685 -242 -310 0
-1685 -242 -414 0
-1685 -242 -415 0
-1685 -364 0
-1685 561 0
-1686 393 0
-1686 223 224 0
-1686 -228 572 0
-1686 -228 -296 0
-1686 -228 -297 0
-1686 -228 -404 0
-1686 -228 -405 0
-1686 -228 -406 0
-1686 -353 0
-1686 -235 578 0
-1686 -235 -303 0
-1686 -235 -304 0
-1686 -235 -409 0
-1686 -235 -410 0
-1686 -235 -411 0
-1686 -359 0
-1686 -242 584 0
-1686 -242 -310 0
-1686 -242 -311 0
-1686 -242 -414 0
-1686 -242 -415 0
-1686 -242 -416 0
-1686 -365 0
-1686 562 0
-1687 393 0
-1687 224 225 0
-1687 -228 572 0
-1687 -228 -297 0
-1687 -228 -298 0
-1687 -228 -404 0
-1687 -228 -405 0
-1687 -228 -406 0
-1687 -228 -407 0
-1687 -354 0
-1687 -235 578 0
-1687 -235 -304 0
-1687 -235 -305 0
-1687 -235 -409 0
-1687 -235 -410 0
-1687 -235 -411 0
-1687 -235 -412 0
-1687 -360 0
-1687 -242 584 0
-1687 -242 -311 0
-1687 -242 -312 0
-1687 -242 -414 0
-1687 -242 -415 0
-1687 -242 -416 0
-1687 -242 -417 0
-1687 -366 0
-1687 563 0
-1688 393 0
-1688 225 226 0
-1688 -228 572 0
-1688 -228 -298 0
-1688 -228 -299 0
-1688 -228 -405 0
-1688 -228 -406 0
-1688 -228 -407 0
-1688 -355 0
-1688 -235 578 0
-1688 -235 -305 0
-1688 -235 -306 0
-1688 -235 -410 0
-1688 -235 -411 0
-1688 -235 -412 0
-1688 -361 0
-1688 -242 584 0
-1688 -242 -312 0
-1688 -242 -313 0
-1688 -242 -415 0
-1688 -242 -416 0
-1688 -242 -417 0
-1688 -367 0
-1688 564 0
-1689 393 0
-1689 226 227 0
-1689 -228 572 0
-1689 -228 -299 0
-1689 -228 -300 0
-1689 -228 -406 0
-1689 -228 -407 0
-1689 -356 0
-1689 -235 578 0
-1689 -235 -306 0
-1689 -235 -307 0
-1689 -235 -411 0
-1689 -235 -412 0
-1689 -362 0
-1689 -242 584 0
-1689 -242 -313 0
-1689 -242 -314 0
-1689 -242 -416 0
-1689 -242 -417 0
-1689 -368 0
-1689 565 0
-1690 393 0
-1690 281 282 0
-1690 -287 572 0
-1690 -287 -236 0
-1690 -287 -237 0
-1690 -287 -404 0
-1690 -287 -405 0
-1690 -352 0
-1690 -294 578 0
-1690 -294 -243 0
-1690 -294 -244 0
-1690 -294 -409 0
-1690 -294 -410 0
-1690 -358 0
-1690 -301 584 0
-1690 -301 -250 0
-1690 -301 -251 0
-1690 -301 -414 0
-1690 -301 -415 0
-1690 -364 0
-1690 561 0
-1691 393 0
-1691 282 283 0
-1691 -287 572 0
-1691 -287 -237 0
-1691 -287 -238 0
-1691 -287 -404 0
-1691 -287 -405 0
-1691 -287 -406 0
-1691 -353 0
-1691 -294 578 0
-1691 -294 -244 0
-1691 -294 -245 0
-1691 -294 -409 0
-1691 -294 -410 0
-1691 -294 -411 0
-1691 -359 0
-1691 -301 584 0
-1691 -301 -251 0
-1691 -301 -252 0
-1691 -301 -414 0
-1691 -301 -415 0
-1691 -301 -416 0
-1691 -365 0
-1691 562 0
-1692 393 0
-1692 283 284 0
-1692 -287 572 0
-1692 -287 -238 0
-1692 -287 -239 0
-1692 -287 -404 0
-1692 -287 -405 0
-1692 -287 -406 0
-1692 -287 -407 0
-1692 -354 0
-1692 -294 578 0
-1692 -294 -245 0
-1692 -294 -246 0
-1692 -294 -409 0
-1692 -294 -410 0
-1692 -294 -411 0
-1692 -294 -412 0
-1692 -360 0
-1692 -301 584 0
-1692 -301 -252 0
-1692 -301 -253 0
-1692 -301 -414 0
-1692 -301 -415 0
-1692 -301 -416 0
-1692 -301 -417 0
-1692 -366 0
-1692 563 0
-1693 393 0
-1693 284 285 0
-1693 -287 572 0
-1693 -287 -239 0
-1693 -287 -240 0
-1693 -287 -405 0
-1693 -287 -406 0
-1693 -287 -407 0
-1693 -355 0
-1693 -294 578 0
-1693 -294 -246 0
-1693 -294 -247 0
-1693 -294 -410 0
-1693 -294 -411 0
-1693 -294 -412 0
-1693 -361 0
-1693 -301 584 0
-1693 -301 -253 0
-1693 -301 -254 0
-1693 -301 -415 0
-1693 -301 -416 0
-1693 -301 -417 0
-1693 -367 0
-1693 564 0
-1694 393 0
-1694 285 286 0
-1694 -287 572 0
-1694 -287 -240 0
-1694 -287 -241 0
-1694 -287 -406 0
-1694 -287 -407 0
-1694 -356 0
-1694 -294 578 0
-1694 -294 -247 0
-1694 -294 -248 0
-1694 -294 -411 0
-1694 -294 -412 0
-1694 -362 0
-1694 -301 584 0
-1694 -301 -254 0
-1694 -301 -255 0
-1694 -301 -416 0
-1694 -301 -417 0
-1694 -368 0
-1694 565 0
-1695 393 0
-1695 394 395 0
-1695 -398 572 0
-1695 -398 -236 0
-1695 -398 -237 0
-1695 -398 -295 0
-1695 -398 -296 0
-1695 -352 0
-1695 -403 578 0
-1695 -403 -243 0
-1695 -403 -244 0
-1695 -403 -302 0
-1695 -403 -303 0
-1695 -358 0
-1695 -408 584 0
-1695 -408 -250 0
-1695 -408 -251 0
-1695 -408 -309 0
-1695 -408 -310 0
-1695 -364 0
-1695 561 0
-1696 393 0
-1696 394 395 396 0
-1696 -398 572 0
-1696 -398 -237 0
-1696 -398 -238 0
-1696 -398 -296 0
-1696 -398 -297 0
-1696 -353 0
-1696 -403 578 0
-1696 -403 -244 0
-1696 -403 -245 0
-1696 -403 -303 0
-1696 -403 -304 0
-1696 -359 0
-1696 -408 584 0
-1696 -408 -251 0
-1696 -408 -252 0
-1696 -408 -310 0
-1696 -408 -311 0
-1696 -365 0
-1696 562 0
-1697 393 0
-1697 394 395 396 397 0
-1697 -398 572 0
-1697 -398 -238 0
-1697 -398 -239 0
-1697 -398 -297 0
-1697 -398 -298 0
-1697 -354 0
-1697 -403 578 0
-1697 -403 -245 0
-1697 -403 -246 0
-1697 -403 -304 0
-1697 -403 -305 0
-1697 -360 0
-1697 -408 584 0
-1697 -408 -252 0
-1697 -408 -253 0
-1697 -408 -311 0
-1697 -408 -312 0
-1697 -366 0
-1697 563 0
-1698 393 0
-1698 395 396 397 0
-1698 -398 572 0
-1698 -398 -239 0
-1698 -398 -240 0
-1698 -398 -298 0
-1698 -398 -299 0
-1698 -355 0
-1698 -403 578 0
-1698 -403 -246 0
-1698 -403 -247 0
-1698 -403 -305 0
-1698 -403 -306 0
-1698 -361 0
-1698 -408 584 0
-1698 -408 -253 0
-1698 -408 -254 0
-1698 -408 -312 0
-1698 -408 -313 0
-1698 -367 0
-1698 564 0
-1699 393 0
-1699 396 397 0
-1699 -398 572 0
-1699 -398 -240 0
-1699 -398 -241 0
-1699 -398 -299 0
-1699 -398 -300 0
-1699 -356 0
-1699 -403 578 0
-1699 -403 -247 0
-1699 -403 -248 0
-1699 -403 -306 0
-1699 -403 -307 0
-1699 -362 0
-1699 -408 584 0
-1699 -408 -254 0
-1699 -408 -255 0
-1699 -408 -313 0
-1699 -408 -314 0
-1699 -368 0
-1699 565 0
-1700 442 0
-1700 -399 0
-1700 -229 0
-1700 -230 0
-1700 -231 0
-1700 -288 0
-1700 -289 0
-1700 -290 0
-1700 -346 0
-1700 -347 0
-1700 -348 0
-1700 615 0
-1700 619 0
-1701 442 0
-1701 -400 0
-1701 -230 0
-1701 -231 0
-1701 -232 0
-1701 -289 0
-1701 -290 0
-1701 -291 0
-1701 -346 0
-1701 -347 0
-1701 -348 0
-1701 -349 0
-1701 616 0
-1701 619 0
-1702 442 0
-1702 -401 0
-1702 -231 0
-1702 -232 0
-1702 -233 0
-1702 -290 0
-1702 -291 0
-1702 -292 0
-1702 -347 0
-1702 -348 0
-1702 -349 0
-1702 -350 0
-1702 617 0
-1702 619 0
-1703 442 0
-1703 -402 0
-1703 -232 0
-1703 -233 0
-1703 -234 0
-1703 -291 0
-1703 -292 0
-1703 -293 0
-1703 -348 0
-1703 -349 0
-1703 -350 0
-1703 618 0
-1703 619 0
-1704 442 0
-1704 222 223 224 0
-1704 -228 624 0
-1704 -228 -295 0
-1704 -228 -296 0
-1704 -228 -297 0
-1704 -228 -352 0
-1704 -228 -353 0
-1704 -228 -354 0
-1704 -404 0
-1704 -235 629 0
-1704 -235 -302 0
-1704 -235 -303 0
-1704 -235 -304 0
-1704 -235 -358 0
-1704 -235 -359 0
-1704 -235 -360 0
-1704 -409 0
-1704 -242 634 0
-1704 -242 -309 0
-1704 -242 -310 0
-1704 -242 -311 0
-1704 -242 -364 0
-1704 -242 -365 0
-1704 -242 -366 0
-1704 -414 0
-1704 615 0
-1705 442 0
-1705 223 224 225 0
-1705 -228 624 0
-1705 -228 -296 0
-1705 -228 -297 0
-1705 -228 -298 0
-1705 -228 -352 0
-1705 -228 -353 0
-1705 -228 -354 0
-1705 -228 -355 0
-1705 -405 0
-1705 -235 629 0
-1705 -235 -303 0
-1705 -235 -304 0
-1705 -235 -305 0
-1705 -235 -358 0
-1705 -235 -359 0
-1705 -235 -360 0
-1705 -235 -361 0
-1705 -410 0
-1705 -242 634 0
-1705 -242 -310 0
-1705 -242 -311 0
-1705 -242 -312 0
-1705 -242 -364 0
-1705 -242 -365 0
-1705 -242 -366 0
-1705 -242 -367 0
-1705 -415 0
-1705 616 0
-1706 442 0
-1706 224 225 226 0
-1706 -228 624 0
-1706 -228 -297 0
-1706 -228 -298 0
-1706 -228 -299 0
-1706 -228 -353 0
-1706 -228 -354 0
-1706 -228 -355 0
-1706 -228 -356 0
-1706 -406 0
-1706 -235 629 0
-1706 -235 -304 0
-1706 -235 -305 0
-1706 -235 -306 0
-1706 -235 -359 0
-1706 -235 -360 0
-1706 -235 -361 0
-1706 -235 -362 0
-1706 -411 0
-1706 -242 634 0
-1706 -242 -311 0
-1706 -242 -312 0
-1706 -242 -313 0
-1706 -242 -365 0
-1706 -242 -366 0
-1706 -242 -367 0
-1706 -242 -368 0
-1706 -416 0
-1706 617 0
-1707 442 0
-1707 225 226 227 0
-1707 -228 624 0
-1707 -228 -298 0
-1707 -228 -299 0
-1707 -228 -300 0
-1707 -228 -354 0
-1707 -228 -355 0
-1707 -228 -356 0
-1707 -407 0
-1707 -235 629 0
-1707 -235 -305 0
-1707 -235 -306 0
-1707 -235 -307 0
-1707 -235 -360 0
-1707 -235 -361 0
-1707 -235 -362 0
-1707 -412 0
-1707 -242 634 0
-1707 -242 -312 0
-1707 -242 -313 0
-1707 -242 -314 0
-1707 -242 -366 0
-1707 -242 -367 0
-1707 -242 -368 0
-1707 -417 0
-1707 618 0
-1708 442 0
-1708 281 282 283 0
-1708 -287 624 0
-1708 -287 -236 0
-1708 -287 -237 0
-1708 -287 -238 0
-1708 -287 -352 0
-1708 -287 -353 0
-1708 -287 -354 0
-1708 -404 0
-1708 -294 629 0
-1708 -294 -243 0
-1708 -294 -244 0
-1708 -294 -245 0
-1708 -294 -358 0
-1708 -294 -359 0
-1708 -294 -360 0
-1708 -409 0
-1708 -301 634 0
-1708 -301 -250 0
-1708 -301 -251 0
-1708 -301 -252 0
-1708 -301 -364 0
-1708 -301 -365 0
-1708 -301 -366 0
-1708 -414 0
-1708 615 0
-1709 442 0
-1709 282 283 284 0
-1709 -287 624 0
-1709 -287 -237 0
-1709 -287 -238 0
-1709 -287 -239 0
-1709 -287 -352 0
-1709 -287 -353 0
-1709 -287 -354 0
-1709 -287 -355 0
-1709 -405 0
-1709 -294 629 0
-1709 -294 -244 0
-1709 -294 -245 0
-1709 -294 -246 0
-1709 -294 -358 0
-1709 -294 -359 0
-1709 -294 -360 0
-1709 -294 -361 0
-1709 -410 0
-1709 -301 634 0
-1709 -301 -251 0
-1709 -301 -252 0
-1709 -301 -253 0
-1709 -301 -364 0
-1709 -301 -365 0
-1709 -301 -366 0
-1709 -301 -367 0
-1709 -415 0
-1709 616 0
-1710 442 0
-1710 283 284 285 0
-1710 -287 624 0
-1710 -287 -238 0
-1710 -287 -239 0
-1710 -287 -240 0
-1710 -287 -353 0
-1710 -287 -354 0
-1710 -287 -355 0
-1710 -287 -356 0
-1710 -406 0
-1710 -294 629 0
-1710 -294 -245 0
-1710 -294 -246 0
-1710 -294 -247 0
-1710 -294 -359 0
-1710 -294 -360 0
-1710 -294 -361 0
-1710 -294 -362 0
-1710 -411 0
-1710 -301 634 0
-1710 -301 -252 0
-1710 -301 -253 0
-1710 -301 -254 0
-1710 -301 -365 0
-1710 -301 -366 0
-1710 -301 -367 0
-1710 -301 -368 0
-1710 -416 0
-1710 617 0
-1711 442 0
-1711 284 285 286 0
-1711 -287 624 0
-1711 -287 -239 0
-1711 -287 -240 0
-1711 -287 -241 0
-1711 -287 -354 0
-1711 -287 -355 0
-1711 -287 -356 0
-1711 -407 0
-1711 -294 629 0
-1711 -294 -246 0
-1711 -294 -247 0
-1711 -294 -248 0
-1711 -294 -360 0
-1711 -294 -361 0
-1711 -294 -362 0
-1711 -412 0
-1711 -301 634 0
-1711 -301 -253 0
-1711 -301 -254 0
-1711 -301 -255 0
-1711 -301 -366 0
-1711 -301 -367 0
-1711 -301 -368 0
-1711 -417 0
-1711 618 0
-1712 442 0
-1712 340 341 342 0
-1712 -345 624 0
-1712 -345 -236 0
-1712 -345 -237 0
-1712 -345 -238 0
-1712 -345 -295 0
-1712 -345 -296 0
-1712 -345 -297 0
-1712 -404 0
-1712 -351 629 0
-1712 -351 -243 0
-1712 -351 -244 0
-1712 -351 -245 0
-1712 -351 -302 0
-1712 -351 -303 0
-1712 -351 -304 0
-1712 -409 0
-1712 -357 634 0
-1712 -357 -250 0
-1712 -357 -251 0
-1712 -357 -252 0
-1712 -357 -309 0
-1712 -357 -310 0
-1712 -357 -311 0
-1712 -414 0
-1712 615 0
-1713 442 0
-1713 340 341 342 343 0
-1713 -345 624 0
-1713 -345 -237 0
-1713 -345 -238 0
-1713 -345 -239 0
-1713 -345 -296 0
-1713 -345 -297 0
-1713 -345 -298 0
-1713 -405 0
-1713 -351 629 0
-1713 -351 -244 0
-1713 -351 -245 0
-1713 -351 -246 0
-1713 -351 -303 0
-1713 -351 -304 0
-1713 -351 -305 0
-1713 -410 0
-1713 -357 634 0
-1713 -357 -251 0
-1713 -357 -252 0
-1713 -357 -253 0
-1713 -357 -310 0
-1713 -357 -311 0
-1713 -357 -312 0
-1713 -415 0
-1713 616 0
-1714 442 0
-1714 341 342 343 344 0
-1714 -345 624 0
-1714 -345 -238 0
-1714 -345 -239 0
-1714 -345 -240 0
-1714 -345 -297 0
-1714 -345 -298 0
-1714 -345 -299 0
-1714 -406 0
-1714 -351 629 0
-1714 -351 -245 0
-1714 -351 -246 0
-1714 -351 -247 0
-1714 -351 -304 0
-1714 -351 -305 0
-1714 -351 -306 0
-1714 -411 0
-1714 -357 634 0
-1714 -357 -252 0
-1714 -357 -253 0
-1714 -357 -254 0
-1714 -357 -311 0
-1714 -357 -312 0
-1714 -357 -313 0
-1714 -416 0
-1714 617 0
-1715 442 0
-1715 342 343 344 0
-1715 -345 624 0
-1715 -345 -239 0
-1715 -345 -240 0
-1715 -345 -241 0
-1715 -345 -298 0
-1715 -345 -299 0
-1715 -345 -300 0
-1715 -407 0
-1715 -351 629 0
-1715 -351 -246 0
-1715 -351 -247 0
-1715 -351 -248 0
-1715 -351 -305 0
-1715 -351 -306 0
-1715 -351 -307 0
-1715 -412 0
-1715 -357 634 0
-1715 -357 -253 0
-1715 -357 -254 0
-1715 -357 -255 0
-1715 -357 -312 0
-1715 -357 -313 0
-1715 -357 -314 0
-1715 -417 0
-1715 618 0
-1716 501 0
-1716 -450 0
-1716 -509 0
-1716 -567 0
-1716 -620 0
-1716 664 0
-1716 670 0
-1717 501 0
-1717 -451 0
-1717 -510 0
-1717 -567 0
-1717 -568 0
-1717 -620 0
-1717 -621 0
-1717 665 0
-1717 670 0
-1718 501 0
-1718 -452 0
-1718 -511 0
-1718 -568 0
-1718 -569 0
-1718 -620 0
-1718 -621 0
-1718 -622 0
-1718 666 0
-1718 670 0
-1719 501 0
-1719 -453 0
-1719 -512 0
-1719 -569 0
-1719 -570 0
-1719 -621 0
-1719 -622 0
-1719 -623 0
-1719 667 0
-1719 670 0
-1720 501 0
-1720 -454 0
-1720 -513 0
-1720 -570 0
-1720 -571 0
-1720 -622 0
-1720 -623 0
-1720 668 0
-1720 670 0
-1721 501 0
-1721 -455 0
-1721 -514 0
-1721 -571 0
-1721 -623 0
-1721 669 0
-1721 670 0
-1722 501 0
-1722 502 0
-1722 -508 677 0
-1722 -508 -573 0
-1722 -508 -625 0
-1722 -457 0
-1722 -515 684 0
-1722 -515 -579 0
-1722 -515 -630 0
-1722 -464 0
-1722 -522 691 0
-1722 -522 -585 0
-1722 -522 -635 0
-1722 -471 0
-1722 664 0
-1723 501 0
-1723 503 0
-1723 -508 677 0
-1723 -508 -573 0
-1723 -508 -574 0
-1723 -508 -625 0
-1723 -508 -626 0
-1723 -458 0
-1723 -515 684 0
-1723 -515 -579 0
-1723 -515 -580 0
-1723 -515 -630 0
-1723 -515 -631 0
-1723 -465 0
-1723 -522 691 0
-1723 -522 -585 0
-1723 -522 -586 0
-1723 -522 -635 0
-1723 -522 -636 0
-1723 -472 0
-1723 665 0
-1724 501 0
-1724 504 0
-1724 -508 677 0
-1724 -508 -574 0
-1724 -508 -575 0
-1724 -508 -625 0
-1724 -508 -626 0
-1724 -508 -627 0
-1724 -459 0
-1724 -515 684 0
-1724 -515 -580 0
-1724 -515 -581 0
-1724 -515 -630 0
-1724 -515 -631 0
-1724 -515 -632 0
-1724 -466 0
-1724 -522 691 0
-1724 -522 -586 0
-1724 -522 -587 0
-1724 -522 -635 0
-1724 -522 -636 0
-1724 -522 -637 0
-1724 -473 0
-1724 666 0
-1725 501 0
-1725 505 0
-1725 -508 677 0
-1725 -508 -575 0
-1725 -508 -576 0
-1725 -508 -626 0
-1725 -508 -627 0
-1725 -508 -628 0
-1725 -460 0
-1725 -515 684 0
-1725 -515 -581 0
-1725 -515 -582 0
-1725 -515 -631 0
-1725 -515 -632 0
-1725 -515 -633 0
-1725 -467 0
-1725 -522 691 0
-1725 -522 -587 0
-1725 -522 -588 0
-1725 -522 -636 0
-1725 -522 -637 0
-1725 -522 -638 0
-1725 -474 0
-1725 667 0
-1726 501 0
-1726 506 0
-1726 -508 677 0
-1726 -508 -576 0
-1726 -508 -577 0
-1726 -508 -627 0
-1726 -508 -628 0
-1726 -461 0
-1726 -515 684 0
-1726 -515 -582 0
-1726 -515 -583 0
-1726 -515 -632 0
-1726 -515 -633 0
-1726 -468 0
-1726 -522 691 0
-1726 -522 -588 0
-1726 -522 -589 0
-1726 -522 -637 0
-1726 -522 -638 0
-1726 -475 0
-1726 668 0
-1727 501 0
-1727 507 0
-1727 -508 677 0
-1727 -508 -577 0
-1727 -508 -628 0
-1727 -462 0
-1727 -515 684 0
-1727 -515 -583 0
-1727 -515 -633 0
-1727 -469 0
-1727 -522 691 0
-1727 -522 -589 0
-1727 -522 -638 0
-1727 -476 0
-1727 669 0
-1728 501 0
-1728 561 0
-1728 -566 677 0
-1728 -566 -516 0
-1728 -566 -625 0
-1728 -457 0
-1728 -572 684 0
-1728 -572 -523 0
-1728 -572 -630 0
-1728 -464 0
-1728 -578 691 0
-1728 -578 -530 0
-1728 -578 -635 0
-1728 -471 0
-1728 664 0
-1729 501 0
-1729 561 562 0
-1729 -566 677 0
-1729 -566 -517 0
-1729 -566 -625 0
-1729 -566 -626 0
-1729 -458 0
-1729 -572 684 0
-1729 -572 -524 0
-1729 -572 -630 0
-1729 -572 -631 0
-1729 -465 0
-1729 -578 691 0
-1729 -578 -531 0
-1729 -578 -635 0
-1729 -578 -636 0
-1729 -472 0
-1729 665 0
-1730 501 0
-1730 562 563 0
-1730 -566 677 0
-1730 -566 -518 0
-1730 -566 -625 0
-1730 -566 -626 0
-1730 -566 -627 0
-1730 -459 0
-1730 -572 684 0
-1730 -572 -525 0
-1730 -572 -630 0
-1730 -572 -631 0
-1730 -572 -632 0
-1730 -466 0
-1730 -578 691 0
-1730 -578 -532 0
-1730 -578 -635 0
-1730 -578 -636 0
-1730 -578 -637 0
-1730 -473 0
-1730 666 0
-1731 501 0
-1731 563 564 0
-1731 -566 677 0
-1731 -566 -519 0
-1731 -566 -626 0
-1731 -566 -627 0
-1731 -566 -628 0
-1731 -460 0
-1731 -572 684 0
-1731 -572 -526 0
-1731 -572 -631 0
-1731 -572 -632 0
-1731 -572 -633 0
-1731 -467 0
-1731 -578 691 0
-1731 -578 -533 0
-1731 -578 -636 0
-1731 -578 -637 0
-1731 -578 -638 0
-1731 -474 0
-1731 667 0
-1732 501 0
-1732 564 565 0
-1732 -566 677 0
-1732 -566 -520 0
-1732 -566 -627 0
-1732 -566 -628 0
-1732 -461 0
-1732 -572 684 0
-1732 -572 -527 0
-1732 -572 -632 0
-1732 -572 -633 0
-1732 -468 0
-1732 -578 691 0
-1732 -578 -534 0
-1732 -578 -637 0
-1732 -578 -638 0
-1732 -475 0
-1732 668 0
-1733 501 0
-1733 565 0
-1733 -566 677 0
-1733 -566 -521 0
-1733 -566 -628 0
-1733 -462 0
-1733 -572 684 0
-1733 -572 -528 0
-1733 -572 -633 0
-1733 -469 0
-1733 -578 691 0
-1733 -578 -535 0
-1733 -578 -638 0
-1733 -476 0
-1733 669 0
-1734 501 0
-1734 615 0
-1734 -619 677 0
-1734 -619 -516 0
-1734 -619 -573 0
-1734 -457 0
-1734 -624 684 0
-1734 -624 -523 0
-1734 -624 -579 0
-1734 -464 0
-1734 -629 691 0
-1734 -629 -530 0
-1734 -629 -585 0
-1734 -471 0
-1734 664 0
-1735 501 0
-1735 615 616 0
-1735 -619 677 0
-1735 -619 -517 0
-1735 -619 -573 0
-1735 -619 -574 0
-1735 -458 0
-1735 -624 684 0
-1735 -624 -524 0
-1735 -624 -579 0
-1735 -624 -580 0
-1735 -465 0
-1735 -629 691 0
-1735 -629 -531 0
-1735 -629 -585 0
-1735 -629 -586 0
-1735 -472 0
-1735 665 0
-1736 501 0
-1736 615 616 617 0
-1736 -619 677 0
-1736 -619 -518 0
-1736 -619 -574 0
-1736 -619 -575 0
-1736 -459 0
-1736 -624 684 0
-1736 -624 -525 0
-1736 -624 -580 0
-1736 -624 -581 0
-1736 -466 0
-1736 -629 691 0
-1736 -629 -532 0
-1736 -629 -586 0
-1736 -629 -587 0
-1736 -473 0
-1736 666 0
-1737 501 0
-1737 616 617 618 0
-1737 -619 677 0
-1737 -619 -519 0
-1737 -619 -575 0
-1737 -619 -576 0
-1737 -460 0
-1737 -624 684 0
-1737 -624 -526 0
-1737 -624 -581 0
-1737 -624 -582 0
-1737 -467 0
-1737 -629 691 0
-1737 -629 -533 0
-1737 -629 -587 0
-1737 -629 -588 0
-1737 -474 0
-1737 667 0
-1738 501 0
-1738 617 618 0
-1738 -619 677 0
-1738 -619 -520 0
-1738 -619 -576 0
-1738 -619 -577 0
-1738 -461 0
-1738 -624 684 0
-1738 -624 -527 0
-1738 -624 -582 0
-1738 -624 -583 0
-1738 -468 0
-1738 -629 691 0
-1738 -629 -534 0
-1738 -629 -588 0
-1738 -629 -589 0
-1738 -475 0
-1738 668 0
-1739 501 0
-1739 618 0
-1739 -619 677 0
-1739 -619 -521 0
-1739 -619 -577 0
-1739 -462 0
-1739 -624 684 0
-1739 -624 -528 0
-1739 -624 -583 0
-1739 -469 0
-1739 -629 691 0
-1739 -629 -535 0
-1739 -629 -589 0
-1739 -476 0
-1739 669 0
-1740 560 0
-1740 -509 0
-1740 -450 0
-1740 -567 0
-1740 -620 0
-1740 723 0
-1740 729 0
-1741 560 0
-1741 -510 0
-1741 -451 0
-1741 -567 0
-1741 -568 0
-1741 -620 0
-1741 -621 0
-1741 724 0
-1741 729 0
-1742 560 0
-1742 -511 0
-1742 -452 0
-1742 -568 0
-1742 -569 0
-1742 -620 0
-1742 -621 0
-1742 -622 0
-1742 725 0
-1742 729 0
-1743 560 0
-1743 -512 0
-1743 -453 0
-1743 -569 0
-1743 -570 0
-1743 -621 0
-1743 -622 0
-1743 -623 0
-1743 726 0
-1743 729 0
-1744 560 0
-1744 -513 0
-1744 -454 0
-1744 -570 0
-1744 -571 0
-1744 -622 0
-1744 -623 0
-1744 727 0
-1744 729 0
-1745 560 0
-1745 -514 0
-1745 -455 0
-1745 -571 0
-1745 -623 0
-1745 728 0
-1745 729 0
-1746 560 0
-1746 443 0
-1746 -449 736 0
-1746 -449 -573 0
-1746 -449 -625 0
-1746 -516 0
-1746 -456 743 0
-1746 -456 -579 0
-1746 -456 -630 0
-1746 -523 0
-1746 -463 750 0
-1746 -463 -585 0
-1746 -463 -635 0
-1746 -530 0
-1746 723 0
-1747 560 0
-1747 444 0
-1747 -449 736 0
-1747 -449 -573 0
-1747 -449 -574 0
-1747 -449 -625 0
-1747 -449 -626 0
-1747 -517 0
-1747 -456 743 0
-1747 -456 -579 0
-1747 -456 -580 0
-1747 -456 -630 0
-1747 -456 -631 0
-1747 -524 0
-1747 -463 750 0
-1747 -463 -585 0
-1747 -463 -586 0
-1747 -463 -635 0
-1747 -463 -636 0
-1747 -531 0
-1747 724 0
-1748 560 0
-1748 445 0
-1748 -449 736 0
-1748 -449 -574 0
-1748 -449 -575 0
-1748 -449 -625 0
-1748 -449 -626 0
-1748 -449 -627 0
-1748 -518 0
-1748 -456 743 0
-1748 -456 -580 0
-1748 -456 -581 0
-1748 -456 -630 0
-1748 -456 -631 0
-1748 -456 -632 0
-1748 -525 0
-1748 -463 750 0
-1748 -463 -586 0
-1748 -463 -587 0
-1748 -463 -635 0
-1748 -463 -636 0
-1748 -463 -637 0
-1748 -532 0
-1748 725 0
-1749 560 0
-1749 446 0
-1749 -449 736 0
-1749 -449 -575 0
-1749 -449 -576 0
-1749 -449 -626 0
-1749 -449 -627 0
-1749 -449 -628 0
-1749 -519 0
-1749 -456 743 0
-1749 -456 -581 0
-1749 -456 -582 0
-1749 -456 -631 0
-1749 -456 -632 0
-1749 -456 -633 0
-1749 -526 0
-1749 -463 750 0
-1749 -463 -587 0
-1749 -463 -588 0
-1749 -463 -636 0
-1749 -463 -637 0
-1749 -463 -638 0
-1749 -533 0
-1749 726 0
-1750 560 0
-1750 447 0
-1750 -449 736 0
-1750 -449 -576 0
-1750 -449 -577 0
-1750 -449 -627 0
-1750 -449 -628 0
-1750 -520 0
-1750 -456 743 0
-1750 -456 -582 0
-1750 -456 -583 0
-1750 -456 -632 0
-1750 -456 -633 0
-1750 -527 0
-1750 -463 750 0
-1750 -463 -588 0
-1750 -463 -589 0
-1750 -463 -637 0
-1750 -463 -638 0
-1750 -534 0
-1750 727 0
-1751 560 0
-1751 448 0
-1751 -449 736 0
-1751 -449 -577 0
-1751 -449 -628 0
-1751 -521 0
-1751 -456 743 0
-1751 -456 -583 0
-1751 -456 -633 0
-1751 -528 0
-1751 -463 750 0
-1751 -463 -589 0
-1751 -463 -638 0
-1751 -535 0
-1751 728 0
-1752 560 0
-1752 561 0
-1752 -566 736 0
-1752 -566 -457 0
-1752 -566 -625 0
-1752 -516 0
-1752 -572 743 0
-1752 -572 -464 0
-1752 -572 -630 0
-1752 -523 0
-1752 -578 750 0
-1752 -578 -471 0
-1752 -578 -635 0
-1752 -530 0
-1752 723 0
-1753 560 0
-1753 561 562 0
-1753 -566 736 0
-1753 -566 -458 0
-1753 -566 -625 0
-1753 -566 -626 0
-1753 -517 0
-1753 -572 743 0
-1753 -572 -465 0
-1753 -572 -630 0
-1753 -572 -631 0
-1753 -524 0
-1753 -578 750 0
-1753 -578 -472 0
-1753 -578 -635 0
-1753 -578 -636 0
-1753 -531 0
-1753 724 0
-1754 560 0
-1754 562 563 0
-1754 -566 736 0
-1754 -566 -459 0
-1754 -566 -625 0
-1754 -566 -626 0
-1754 -566 -627 0
-1754 -518 0
-1754 -572 743 0
-1754 -572 -466 0
-1754 -572 -630 0
-1754 -572 -631 0
-1754 -572 -632 0
-1754 -525 0
-1754 -578 750 0
-1754 -578 -473 0
-1754 -578 -635 0
-1754 -578 -636 0
-1754 -578 -637 0
-1754 -532 0
-1754 725 0
-1755 560 0
-1755 563 564 0
-1755 -566 736 0
-1755 -566 -460 0
-1755 -566 -626 0
-1755 -566 -627 0
-1755 -566 -628 0
-1755 -519 0
-1755 -572 743 0
-1755 -572 -467 0
-1755 -572 -631 0
-1755 -572 -632 0
-1755 -572 -633 0
-1755 -526 0
-1755 -578 750 0
-1755 -578 -474 0
-1755 -578 -636 0
-1755 -578 -637 0
-1755 -578 -638 0
-1755 -533 0
-1755 726 0
-1756 560 0
-1756 564 565 0
-1756 -566 736 0
-1756 -566 -461 0
-1756 -566 -627 0
-1756 -566 -628 0
-1756 -520 0
-1756 -572 743 0
-1756 -572 -468 0
-1756 -572 -632 0
-1756 -572 -633 0
-1756 -527 0
-1756 -578 750 0
-1756 -578 -475 0
-1756 -578 -637 0
-1756 -578 -638 0
-1756 -534 0
-1756 727 0
-1757 560 0
-1757 565 0
-1757 -566 736 0
-1757 -566 -462 0
-1757 -566 -628 0
-1757 -521 0
-1757 -572 743 0
-1757 -572 -469 0
-1757 -572 -633 0
-1757 -528 0
-1757 -578 750 0
-1757 -578 -476 0
-1757 -578 -638 0
-1757 -535 0
-1757 728 0
-1758 560 0
-1758 615 0
-1758 -619 736 0
-1758 -619 -457 0
-1758 -619 -573 0
-1758 -516 0
-1758 -624 743 0
-1758 -624 -464 0
-1758 -624 -579 0
-1758 -523 0
-1758 -629 750 0
-1758 -629 -471 0
-1758 -629 -585 0
-1758 -530 0
-1758 723 0
-1759 560 0
-1759 615 616 0
-1759 -619 736 0
-1759 -619 -458 0
-1759 -619 -573 0
-1759 -619 -574 0
-1759 -517 0
-1759 -624 743 0
-1759 -624 -465 0
-1759 -624 -579 0
-1759 -624 -580 0
-1759 -524 0
-1759 -629 750 0
-1759 -629 -472 0
-1759 -629 -585 0
-1759 -629 -586 0
-1759 -531 0
-1759 724 0
-1760 560 0
-1760 615 616 617 0
-1760 -619 736 0
-1760 -619 -459 0
-1760 -619 -574 0
-1760 -619 -575 0
-1760 -518 0
-1760 -624 743 0
-1760 -624 -466 0
-1760 -624 -580 0
-1760 -624 -581 0
-1760 -525 0
-1760 -629 750 0
-1760 -629 -473 0
-1760 -629 -586 0
-1760 -629 -587 0
-1760 -532 0
-1760 725 0
-1761 560 0
-1761 616 617 618 0
-1761 -619 736 0
-1761 -619 -460 0
-1761 -619 -575 0
-1761 -619 -576 0
-1761 -519 0
-1761 -624 743 0
-1761 -624 -467 0
-1761 -624 -581 0
-1761 -624 -582 0
-1761 -526 0
-1761 -629 750 0
-1761 -629 -474 0
-1761 -629 -587 0
-1761 -629 -588 0
-1761 -533 0
-1761 726 0
-1762 560 0
-1762 617 618 0
-1762 -619 736 0
-1762 -619 -461 0
-1762 -619 -576 0
-1762 -619 -577 0
-1762 -520 0
-1762 -624 743 0
-1762 -624 -468 0
-1762 -624 -582 0
-1762 -624 -583 0
-1762 -527 0
-1762 -629 750 0
-1762 -629 -475 0
-1762 -629 -588 0
-1762 -629 -589 0
-1762 -534 0
-1762 727 0
-1763 560 0
-1763 618 0
-1763 -619 736 0
-1763 -619 -462 0
-1763 -619 -577 0
-1763 -521 0
-1763 -624 743 0
-1763 -624 -469 0
-1763 -624 -583 0
-1763 -528 0
-1763 -629 750 0
-1763 -629 -476 0
-1763 -629 -589 0
-1763 -535 0
-1763 728 0
-1764 614 0
-1764 -567 0
-1764 -450 0
-1764 -451 0
-1764 -509 0
-1764 -510 0
-1764 -620 0
-1764 -621 0
-1764 782 0
-1764 787 0
-1765 614 0
-1765 -568 0
-1765 -451 0
-1765 -452 0
-1765 -510 0
-1765 -511 0
-1765 -620 0
-1765 -621 0
-1765 -622 0
-1765 783 0
-1765 787 0
-1766 614 0
-1766 -569 0
-1766 -452 0
-1766 -453 0
-1766 -511 0
-1766 -512 0
-1766 -620 0
-1766 -621 0
-1766 -622 0
-1766 -623 0
-1766 784 0
-1766 787 0
-1767 614 0
-1767 -570 0
-1767 -453 0
-1767 -454 0
-1767 -512 0
-1767 -513 0
-1767 -621 0
-1767 -622 0
-1767 -623 0
-1767 785 0
-1767 787 0
-1768 614 0
-1768 -571 0
-1768 -454 0
-1768 -455 0
-1768 -513 0
-1768 -514 0
-1768 -622 0
-1768 -623 0
-1768 786 0
-1768 787 0
-1769 614 0
-1769 443 444 0
-1769 -449 793 0
-1769 -449 -516 0
-1769 -449 -517 0
-1769 -449 -625 0
-1769 -449 -626 0
-1769 -573 0
-1769 -456 799 0
-1769 -456 -523 0
-1769 -456 -524 0
-1769 -456 -630 0
-1769 -456 -631 0
-1769 -579 0
-1769 -463 805 0
-1769 -463 -530 0
-1769 -463 -531 0
-1769 -463 -635 0
-1769 -463 -636 0
-1769 -585 0
-1769 782 0
-1770 614 0
-1770 444 445 0
-1770 -449 793 0
-1770 -449 -517 0
-1770 -449 -518 0
-1770 -449 -625 0
-1770 -449 -626 0
-1770 -449 -627 0
-1770 -574 0
-1770 -456 799 0
-1770 -456 -524 0
-1770 -456 -525 0
-1770 -456 -630 0
-1770 -456 -631 0
-1770 -456 -632 0
-1770 -580 0
-1770 -463 805 0
-1770 -463 -531 0
-1770 -463 -532 0
-1770 -463 -635 0
-1770 -463 -636 0
-1770 -463 -637 0
-1770 -586 0
-1770 783 0
-1771 614 0
-1771 445 446 0
-1771 -449 793 0
-1771 -449 -518 0
-1771 -449 -519 0
-1771 -449 -625 0
-1771 -449 -626 0
-1771 -449 -627 0
-1771 -449 -628 0
-1771 -575 0
-1771 -456 799 0
-1771 -456 -525 0
-1771 -456 -526 0
-1771 -456 -630 0
-1771 -456 -631 0
-1771 -456 -632 0
-1771 -456 -633 0
-1771 -581 0
-1771 -463 805 0
-1771 -463 -532 0
-1771 -463 -533 0
-1771 -463 -635 0
-1771 -463 -636 0
-1771 -463 -637 0
-1771 -463 -638 0
-1771 -587 0
-1771 784 0
-1772 614 0
-1772 446 447 0
-1772 -449 793 0
-1772 -449 -519 0
-1772 -449 -520 0
-1772 -449 -626 0
-1772 -449 -627 0
-1772 -449 -628 0
-1772 -576 0
-1772 -456 799 0
-1772 -456 -526 0
-1772 -456 -527 0
-1772 -456 -631 0
-1772 -456 -632 0
-1772 -456 -633 0
-1772 -582 0
-1772 -463 805 0
-1772 -463 -533 0
-1772 -463 -534 0
-1772 -463 -636 0
-1772 -463 -637 0
-1772 -463 -638 0
-1772 -588 0
-1772 785 0
-1773 614 0
-1773 447 448 0
-1773 -449 793 0
-1773 -449 -520 0
-1773 -449 -521 0
-1773 -449 -627 0
-1773 -449 -628 0
-1773 -577 0
-1773 -456 799 0
-1773 -456 -527 0
-1773 -456 -528 0
-1773 -456 -632 0
-1773 -456 -633 0
-1773 -583 0
-1773 -463 805 0
-1773 -463 -534 0
-1773 -463 -535 0
-1773 -463 -637 0
-1773 -463 -638 0
-1773 -589 0
-1773 786 0
-1774 614 0
-1774 502 503 0
-1774 -508 793 0
-1774 -508 -457 0
-1774 -508 -458 0
-1774 -508 -625 0
-1774 -508 -626 0
-1774 -573 0
-1774 -515 799 0
-1774 -515 -464 0
-1774 -515 -465 0
-1774 -515 -630 0
-1774 -515 -631 0
-1774 -579 0
-1774 -522 805 0
-1774 -522 -471 0
-1774 -522 -472 0
-1774 -522 -635 0
-1774 -522 -636 0
-1774 -585 0
-1774 782 0
-1775 614 0
-1775 503 504 0
-1775 -508 793 0
-1775 -508 -458 0
-1775 -508 -459 0
-1775 -508 -625 0
-1775 -508 -626 0
-1775 -508 -627 0
-1775 -574 0
-1775 -515 799 0
-1775 -515 -465 0
-1775 -515 -466 0
-1775 -515 -630 0
-1775 -515 -631 0
-1775 -515 -632 0
-1775 -580 0
-1775 -522 805 0
-1775 -522 -472 0
-1775 -522 -473 0
-1775 -522 -635 0
-1775 -522 -636 0
-1775 -522 -637 0
-1775 -586 0
-1775 783 0
-1776 614 0
-1776 504 505 0
-1776 -508 793 0
-1776 -508 -459 0
-1776 -508 -460 0
-1776 -508 -625 0
-1776 -508 -626 0
-1776 -508 -627 0
-1776 -508 -628 0
-1776 -575 0
-1776 -515 799 0
-1776 -515 -466 0
-1776 -515 -467 0
-1776 -515 -630 0
-1776 -515 -631 0
-1776 -515 -632 0
-1776 -515 -633 0
-1776 -581 0
-1776 -522 805 0
-1776 -522 -473 0
-1776 -522 -474 0
-1776 -522 -635 0
-1776 -522 -636 0
-1776 -522 -637 0
-1776 -522 -638 0
-1776 -587 0
-1776 784 0
-1777 614 0
-1777 505 506 0
-1777 -508 793 0
-1777 -508 -460 0
-1777 -508 -461 0
-1777 -508 -626 0
-1777 -508 -627 0
-1777 -508 -628 0
-1777 -576 0
-1777 -515 799 0
-1777 -515 -467 0
-1777 -515 -468 0
-1777 -515 -631 0
-1777 -515 -632 0
-1777 -515 -633 0
-1777 -582 0
-1777 -522 805 0
-1777 -522 -474 0
-1777 -522 -475 0
-1777 -522 -636 0
-1777 -522 -637 0
-1777 -522 -638 0
-1777 -588 0
-1777 785 0
-1778 614 0
-1778 506 507 0
-1778 -508 793 0
-1778 -508 -461 0
-1778 -508 -462 0
-1778 -508 -627 0
-1778 -508 -628 0
-1778 -577 0
-1778 -515 799 0
-1778 -515 -468 0
-1778 -515 -469 0
-1778 -515 -632 0
-1778 -515 -633 0
-1778 -583 0
-1778 -522 805 0
-1778 -522 -475 0
-1778 -522 -476 0
-1778 -522 -637 0
-1778 -522 -638 0
-1778 -589 0
-1778 786 0
-1779 614 0
-1779 615 616 0
-1779 -619 793 0
-1779 -619 -457 0
-1779 -619 -458 0
-1779 -619 -516 0
-1779 -619 -517 0
-1779 -573 0
-1779 -624 799 0
-1779 -624 -464 0
-1779 -624 -465 0
-1779 -624 -523 0
-1779 -624 -524 0
-1779 -579 0
-1779 -629 805 0
-1779 -629 -471 0
-1779 -629 -472 0
-1779 -629 -530 0
-1779 -629 -531 0
-1779 -585 0
-1779 782 0
-1780 614 0
-1780 615 616 617 0
-1780 -619 793 0
-1780 -619 -458 0
-1780 -619 -459 0
-1780 -619 -517 0
-1780 -619 -518 0
-1780 -574 0
-1780 -624 799 0
-1780 -624 -465 0
-1780 -624 -466 0
-1780 -624 -524 0
-1780 -624 -525 0
-1780 -580 0
-1780 -629 805 0
-1780 -629 -472 0
-1780 -629 -473 0
-1780 -629 -531 0
-1780 -629 -532 0
-1780 -586 0
-1780 783 0
-1781 614 0
-1781 615 616 617 618 0
-1781 -619 793 0
-1781 -619 -459 0
-1781 -619 -460 0
-1781 -619 -518 0
-1781 -619 -519 0
-1781 -575 0
-1781 -624 799 0
-1781 -624 -466 0
-1781 -624 -467 0
-1781 -624 -525 0
-1781 -624 -526 0
-1781 -581 0
-1781 -629 805 0
-1781 -629 -473 0
-1781 -629 -474 0
-1781 -629 -532 0
-1781 -629 -533 0
-1781 -587 0
-1781 784 0
-1782 614 0
-1782 616 617 618 0
-1782 -619 793 0
-1782 -619 -460 0
-1782 -619 -461 0
-1782 -619 -519 0
-1782 -619 -520 0
-1782 -576 0
-1782 -624 799 0
-1782 -624 -467 0
-1782 -624 -468 0
-1782 -624 -526 0
-1782 -624 -527 0
-1782 -582 0
-1782 -629 805 0
-1782 -629 -474 0
-1782 -629 -475 0
-1782 -629 -533 0
-1782 -629 -534 0
-1782 -588 0
-1782 785 0
-1783 614 0
-1783 617 618 0
-1783 -619 793 0
-1783 -619 -461 0
-1783 -619 -462 0
-1783 -619 -520 0
-1783 -619 -521 0
-1783 -577 0
-1783 -624 799 0
-1783 -624 -468 0
-1783 -624 -469 0
-1783 -624 -527 0
-1783 -624 -528 0
-1783 -583 0
-1783 -629 805 0
-1783 -629 -475 0
-1783 -629 -476 0
-1783 -629 -534 0
-1783 -629 -535 0
-1783 -589 0
-1783 786 0
-1784 663 0
-1784 -620 0
-1784 -450 0
-1784 -451 0
-1784 -452 0
-1784 -509 0
-1784 -510 0
-1784 -511 0
-1784 -567 0
-1784 -568 0
-1784 -569 0
-1784 836 0
-1784 840 0
-1785 663 0
-1785 -621 0
-1785 -451 0
-1785 -452 0
-1785 -453 0
-1785 -510 0
-1785 -511 0
-1785 -512 0
-1785 -567 0
-1785 -568 0
-1785 -569 0
-1785 -570 0
-1785 837 0
-1785 840 0
-1786 663 0
-1786 -622 0
-1786 -452 0
-1786 -453 0
-1786 -454 0
-1786 -511 0
-1786 -512 0
-1786 -513 0
-1786 -568 0
-1786 -569 0
-1786 -570 0
-1786 -571 0
-1786 838 0
-1786 840 0
-1787 663 0
-1787 -623 0
-1787 -453 0
-1787 -454 0
-1787 -455 0
-1787 -512 0
-1787 -513 0
-1787 -514 0
-1787 -569 0
-1787 -570 0
-1787 -571 0
-1787 839 0
-1787 840 0
-1788 663 0
-1788 443 444 445 0
-1788 -449 845 0
-1788 -449 -516 0
-1788 -449 -517 0
-1788 -449 -518 0
-1788 -449 -573 0
-1788 -449 -574 0
-1788 -449 -575 0
-1788 -625 0
-1788 -456 850 0
-1788 -456 -523 0
-1788 -456 -524 0
-1788 -456 -525 0
-1788 -456 -579 0
-1788 -456 -580 0
-1788 -456 -581 0
-1788 -630 0
-1788 -463 855 0
-1788 -463 -530 0
-1788 -463 -531 0
-1788 -463 -532 0
-1788 -463 -585 0
-1788 -463 -586 0
-1788 -463 -587 0
-1788 -635 0
-1788 836 0
-1789 663 0
-1789 444 445 446 0
-1789 -449 845 0
-1789 -449 -517 0
-1789 -449 -518 0
-1789 -449 -519 0
-1789 -449 -573 0
-1789 -449 -574 0
-1789 -449 -575 0
-1789 -449 -576 0
-1789 -626 0
-1789 -456 850 0
-1789 -456 -524 0
-1789 -456 -525 0
-1789 -456 -526 0
-1789 -456 -579 0
-1789 -456 -580 0
-1789 -456 -581 0
-1789 -456 -582 0
-1789 -631 0
-1789 -463 855 0
-1789 -463 -531 0
-1789 -463 -532 0
-1789 -463 -533 0
-1789 -463 -585 0
-1789 -463 -586 0
-1789 -463 -587 0
-1789 -463 -588 0
-1789 -636 0
-1789 837 0
-1790 663 0
-1790 445 446 447 0
-1790 -449 845 0
-1790 -449 -518 0
-1790 -449 -519 0
-1790 -449 -520 0
-1790 -449 -574 0
-1790 -449 -575 0
-1790 -449 -576 0
-1790 -449 -577 0
-1790 -627 0
-1790 -456 850 0
-1790 -456 -525 0
-1790 -456 -526 0
-1790 -456 -527 0
-1790 -456 -580 0
-1790 -456 -581 0
-1790 -456 -582 0
-1790 -456 -583 0
-1790 -632 0
-1790 -463 855 0
-1790 -463 -532 0
-1790 -463 -533 0
-1790 -463 -534 0
-1790 -463 -586 0
-1790 -463 -587 0
-1790 -463 -588 0
-1790 -463 -589 0
-1790 -637 0
-1790 838 0
-1791 663 0
-1791 446 447 448 0
-1791 -449 845 0
-1791 -449 -519 0
-1791 -449 -520 0
-1791 -449 -521 0
-1791 -449 -575 0
-1791 -449 -576 0
-1791 -449 -577 0
-1791 -628 0
-1791 -456 850 0
-1791 -456 -526 0
-1791 -456 -527 0
-1791 -456 -528 0
-1791 -456 -581 0
-1791 -456 -582 0
-1791 -456 -583 0
-1791 -633 0
-1791 -463 855 0
-1791 -463 -533 0
-1791 -463 -534 0
-1791 -463 -535 0
-1791 -463 -587 0
-1791 -463 -588 0
-1791 -463 -589 0
-1791 -638 0
-1791 839 0
-1792 663 0
-1792 502 503 504 0
-1792 -508 845 0
-1792 -508 -457 0
-1792 -508 -458 0
-1792 -508 -459 0
-1792 -508 -573 0
-1792 -508 -574 0
-1792 -508 -575 0
-1792 -625 0
-1792 -515 850 0
-1792 -515 -464 0
-1792 -515 -465 0
-1792 -515 -466 0
-1792 -515 -579 0
-1792 -515 -580 0
-1792 -515 -581 0
-1792 -630 0
-1792 -522 855 0
-1792 -522 -471 0
-1792 -522 -472 0
-1792 -522 -473 0
-1792 -522 -585 0
-1792 -522 -586 0
-1792 -522 -587 0
-1792 -635 0
-1792 836 0
-1793 663 0
-1793 503 504 505 0
-1793 -508 845 0
-1793 -508 -458 0
-1793 -508 -459 0
-1793 -508 -460 0
-1793 -508 -573 0
-1793 -508 -574 0
-1793 -508 -575 0
-1793 -508 -576 0
-1793 -626 0
-1793 -515 850 0
-1793 -515 -465 0
-1793 -515 -466 0
-1793 -515 -467 0
-1793 -515 -579 0
-1793 -515 -580 0
-1793 -515 -581 0
-1793 -515 -582 0
-1793 -631 0
-1793 -522 855 0
-1793 -522 -472 0
-1793 -522 -473 0
-1793 -522 -474 0
-1793 -522 -585 0
-1793 -522 -586 0
-1793 -522 -587 0
-1793 -522 -588 0
-1793 -636 0
-1793 837 0
-1794 663 0
-1794 504 505 506 0
-1794 -508 845 0
-1794 -508 -459 0
-1794 -508 -460 0
-1794 -508 -461 0
-1794 -508 -574 0
-1794 -508 -575 0
-1794 -508 -576 0
-1794 -508 -577 0
-1794 -627 0
-1794 -515 850 0
-1794 -515 -466 0
-1794 -515 -467 0
-1794 -515 -468 0
-1794 -515 -580 0
-1794 -515 -581 0
-1794 -515 -582 0
-1794 -515 -583 0
-1794 -632 0
-1794 -522 855 0
-1794 -522 -473 0
-1794 -522 -474 0
-1794 -522 -475 0
-1794 -522 -586 0
-1794 -522 -587 0
-1794 -522 -588 0
-1794 -522 -589 0
-1794 -637 0
-1794 838 0
-1795 663 0
-1795 505 506 507 0
-1795 -508 845 0
-1795 -508 -460 0
-1795 -508 -461 0
-1795 -508 -462 0
-1795 -508 -575 0
-1795 -508 -576 0
-1795 -508 -577 0
-1795 -628 0
-1795 -515 850 0
-1795 -515 -467 0
-1795 -515 -468 0
-1795 -515 -469 0
-1795 -515 -581 0
-1795 -515 -582 0
-1795 -515 -583 0
-1795 -633 0
-1795 -522 855 0
-1795 -522 -474 0
-1795 -522 -475 0
-1795 -522 -476 0
-1795 -522 -587 0
-1795 -522 -588 0
-1795 -522 -589 0
-1795 -638 0
-1795 839 0
-1796 663 0
-1796 561 562 563 0
-1796 -566 845 0
-1796 -566 -457 0
-1796 -566 -458 0
-1796 -566 -459 0
-1796 -566 -516 0
-1796 -566 -517 0
-1796 -566 -518 0
-1796 -625 0
-1796 -572 850 0
-1796 -572 -464 0
-1796 -572 -465 0
-1796 -572 -466 0
-1796 -572 -523 0
-1796 -572 -524 0
-1796 -572 -525 0
-1796 -630 0
-1796 -578 855 0
-1796 -578 -471 0
-1796 -578 -472 0
-1796 -578 -473 0
-1796 -578 -530 0
-1796 -578 -531 0
-1796 -578 -532 0
-1796 -635 0
-1796 836 0
-1797 663 0
-1797 561 562 563 564 0
-1797 -566 845 0
-1797 -566 -458 0
-1797 -566 -459 0
-1797 -566 -460 0
-1797 -566 -517 0
-1797 -566 -518 0
-1797 -566 -519 0
-1797 -626 0
-1797 -572 850 0
-1797 -572 -465 0
-1797 -572 -466 0
-1797 -572 -467 0
-1797 -572 -524 0
-1797 -572 -525 0
-1797 -572 -526 0
-1797 -631 0
-1797 -578 855 0
-1797 -578 -472 0
-1797 -578 -473 0
-1797 -578 -474 0
-1797 -578 -531 0
-1797 -578 -532 0
-1797 -578 -533 0
-1797 -636 0
-1797 837 0
-1798 663 0
-1798 562 563 564 565 0
-1798 -566 845 0
-1798 -566 -459 0
-1798 -566 -460 0
-1798 -566 -461 0
-1798 -566 -518 0
-1798 -566 -519 0
-1798 -566 -520 0
-1798 -627 0
-1798 -572 850 0
-1798 -572 -466 0
-1798 -572 -467 0
-1798 -572 -468 0
-1798 -572 -525 0
-1798 -572 -526 0
-1798 -572 -527 0
-1798 -632 0
-1798 -578 855 0
-1798 -578 -473 0
-1798 -578 -474 0
-1798 -578 -475 0
-1798 -578 -532 0
-1798 -578 -533 0
-1798 -578 -534 0
-1798 -637 0
-1798 838 0
-1799 663 0
-1799 563 564 565 0
-1799 -566 845 0
-1799 -566 -460 0
-1799 -566 -461 0
-1799 -566 -462 0
-1799 -566 -519 0
-1799 -566 -520 0
-1799 -566 -521 0
-1799 -628 0
-1799 -572 850 0
-1799 -572 -467 0
-1799 -572 -468 0
-1799 -572 -469 0
-1799 -572 -526 0
-1799 -572 -527 0
-1799 -572 -528 0
-1799 -633 0
-1799 -578 855 0
-1799 -578 -474 0
-1799 -578 -475 0
-1799 -578 -476 0
-1799 -578 -533 0
-1799 -578 -534 0
-1799 -578 -535 0
-1799 -638 0
-1799 839 0
-1800 722 0
-1800 -671 0
-1800 -730 0
-1800 -788 0
-1800 -841 0
-1800 885 0
-1800 891 0
-1801 722 0
-1801 -672 0
-1801 -731 0
-1801 -788 0
-1801 -789 0
-1801 -841 0
-1801 -842 0
-1801 886 0
-1801 891 0
-1802 722 0
-1802 -673 0
-1802 -732 0
-1802 -789 0
-1802 -790 0
-1802 -841 0
-1802 -842 0
-1802 -843 0
-1802 887 0
-1802 891 0
-1803 722 0
-1803 -674 0
-1803 -733 0
-1803 -790 0
-1803 -791 0
-1803 -842 0
-1803 -843 0
-1803 -844 0
-1803 888 0
-1803 891 0
-1804 722 0
-1804 -675 0
-1804 -734 0
-1804 -791 0
-1804 -792 0
-1804 -843 0
-1804 -844 0
-1804 889 0
-1804 891 0
-1805 722 0
-1805 -676 0
-1805 -735 0
-1805 -792 0
-1805 -844 0
-1805 890 0
-1805 891 0
-1806 722 0
-1806 723 0
-1806 -729 898 0
-1806 -729 -794 0
-1806 -729 -846 0
-1806 -678 0
-1806 -736 905 0
-1806 -736 -800 0
-1806 -736 -851 0
-1806 -685 0
-1806 -743 912 0
-1806 -743 -806 0
-1806 -743 -856 0
-1806 -692 0
-1806 885 0
-1807 722 0
-1807 724 0
-1807 -729 898 0
-1807 -729 -794 0
-1807 -729 -795 0
-1807 -729 -846 0
-1807 -729 -847 0
-1807 -679 0
-1807 -736 905 0
-1807 -736 -800 0
-1807 -736 -801 0
-1807 -736 -851 0
-1807 -736 -852 0
-1807 -686 0
-1807 -743 912 0
-1807 -743 -806 0
-1807 -743 -807 0
-1807 -743 -856 0
-1807 -743 -857 0
-1807 -693 0
-1807 886 0
-1808 722 0
-1808 725 0
-1808 -729 898 0
-1808 -729 -795 0
-1808 -729 -796 0
-1808 -729 -846 0
-1808 -729 -847 0
-1808 -729 -848 0
-1808 -680 0
-1808 -736 905 0
-1808 -736 -801 0
-1808 -736 -802 0
-1808 -736 -851 0
-1808 -736 -852 0
-1808 -736 -853 0
-1808 -687 0
-1808 -743 912 0
-1808 -743 -807 0
-1808 -743 -808 0
-1808 -743 -856 0
-1808 -743 -857 0
-1808 -743 -858 0
-1808 -694 0
-1808 887 0
-1809 722 0
-1809 726 0
-1809 -729 898 0
-1809 -729 -796 0
-1809 -729 -797 0
-1809 -729 -847 0
-1809 -729 -848 0
-1809 -729 -849 0
-1809 -681 0
-1809 -736 905 0
-1809 -736 -802 0
-1809 -736 -803 0
-1809 -736 -852 0
-1809 -736 -853 0
-1809 -736 -854 0
-1809 -688 0
-1809 -743 912 0
-1809 -743 -808 0
-1809 -743 -809 0
-1809 -743 -857 0
-1809 -743 -858 0
-1809 -743 -859 0
-1809 -695 0
-1809 888 0
-1810 722 0
-1810 727 0
-1810 -729 898 0
-1810 -729 -797 0
-1810 -729 -798 0
-1810 -729 -848 0
-1810 -729 -849 0
-1810 -682 0
-1810 -736 905 0
-1810 -736 -803 0
-1810 -736 -804 0
-1810 -736 -853 0
-1810 -736 -854 0
-1810 -689 0
-1810 -743 912 0
-1810 -743 -809 0
-1810 -743 -810 0
-1810 -743 -858 0
-1810 -743 -859 0
-1810 -696 0
-1810 889 0
-1811 722 0
-1811 728 0
-1811 -729 898 0
-1811 -729 -798 0
-1811 -729 -849 0
-1811 -683 0
-1811 -736 905 0
-1811 -736 -804 0
-1811 -736 -854 0
-1811 -690 0
-1811 -743 912 0
-1811 -743 -810 0
-1811 -743 -859 0
-1811 -697 0
-1811 890 0
-1812 722 0
-1812 782 0
-1812 -787 898 0
-1812 -787 -737 0
-1812 -787 -846 0
-1812 -678 0
-1812 -793 905 0
-1812 -793 -744 0
-1812 -793 -851 0
-1812 -685 0
-1812 -799 912 0
-1812 -799 -751 0
-1812 -799 -856 0
-1812 -692 0
-1812 885 0
-1813 722 0
-1813 782 783 0
-1813 -787 898 0
-1813 -787 -738 0
-1813 -787 -846 0
-1813 -787 -847 0
-1813 -679 0
-1813 -793 905 0
-1813 -793 -745 0
-1813 -793 -851 0
-1813 -793 -852 0
-1813 -686 0
-1813 -799 912 0
-1813 -799 -752 0
-1813 -799 -856 0
-1813 -799 -857 0
-1813 -693 0
-1813 886 0
-1814 722 0
-1814 783 784 0
-1814 -787 898 0
-1814 -787 -739 0
-1814 -787 -846 0
-1814 -787 -847 0
-1814 -787 -848 0
-1814 -680 0
-1814 -793 905 0
-1814 -793 -746 0
-1814 -793 -851 0
-1814 -793 -852 0
-1814 -793 -853 0
-1814 -687 0
-1814 -799 912 0
-1814 -799 -753 0
-1814 -799 -856 0
-1814 -799 -857 0
-1814 -799 -858 0
-1814 -694 0
-1814 887 0
-1815 722 0
-1815 784 785 0
-1815 -787 898 0
-1815 -787 -740 0
-1815 -787 -847 0
-1815 -787 -848 0
-1815 -787 -849 0
-1815 -681 0
-1815 -793 905 0
-1815 -793 -747 0
-1815 -793 -852 0
-1815 -793 -853 0
-1815 -793 -854 0
-1815 -688 0
-1815 -799 912 0
-1815 -799 -754 0
-1815 -799 -857 0
-1815 -799 -858 0
-1815 -799 -859 0
-1815 -695 0
-1815 888 0
-1816 722 0
-1816 785 786 0
-1816 -787 898 0
-1816 -787 -741 0
-1816 -787 -848 0
-1816 -787 -849 0
-1816 -682 0
-1816 -793 905 0
-1816 -793 -748 0
-1816 -793 -853 0
-1816 -793 -854 0
-1816 -689 0
-1816 -799 912 0
-1816 -799 -755 0
-1816 -799 -858 0
-1816 -799 -859 0
-1816 -696 0
-1816 889 0
-1817 722 0
-1817 786 0
-1817 -787 898 0
-1817 -787 -742 0
-1817 -787 -849 0
-1817 -683 0
-1817 -793 905 0
-1817 -793 -749 0
-1817 -793 -854 0
-1817 -690 0
-1817 -799 912 0
-1817 -799 -756 0
-1817 -799 -859 0
-1817 -697 0
-1817 890 0
-1818 722 0
-1818 836 0
-1818 -840 898 0
-1818 -840 -737 0
-1818 -840 -794 0
-1818 -678 0
-1818 -845 905 0
-1818 -845 -744 0
-1818 -845 -800 0
-1818 -685 0
-1818 -850 912 0
-1818 -850 -751 0
-1818 -850 -806 0
-1818 -692 0
-1818 885 0
-1819 722 0
-1819 836 837 0
-1819 -840 898 0
-1819 -840 -738 0
-1819 -840 -794 0
-1819 -840 -795 0
-1819 -679 0
-1819 -845 905 0
-1819 -845 -745 0
-1819 -845 -800 0
-1819 -845 -801 0
-1819 -686 0
-1819 -850 912 0
-1819 -850 -752 0
-1819 -850 -806 0
-1819 -850 -807 0
-1819 -693 0
-1819 886 0
-1820 722 0
-1820 836 837 838 0
-1820 -840 898 0
-1820 -840 -739 0
-1820 -840 -795 0
-1820 -840 -796 0
-1820 -680 0
-1820 -845 905 0
-1820 -845 -746 0
-1820 -845 -801 0
-1820 -845 -802 0
-1820 -687 0
-1820 -850 912 0
-1820 -850 -753 0
-1820 -850 -807 0
-1820 -850 -808 0
-1820 -694 0
-1820 887 0
-1821 722 0
-1821 837 838 839 0
-1821 -840 898 0
-1821 -840 -740 0
-1821 -840 -796 0
-1821 -840 -797 0
-1821 -681 0
-1821 -845 905 0
-1821 -845 -747 0
-1821 -845 -802 0
-1821 -845 -803 0
-1821 -688 0
-1821 -850 912 0
-1821 -850 -754 0
-1821 -850 -808 0
-1821 -850 -809 0
-1821 -695 0
-1821 888 0
-1822 722 0
-1822 838 839 0
-1822 -840 898 0
-1822 -840 -741 0
-1822 -840 -797 0
-1822 -840 -798 0
-1822 -682 0
-1822 -845 905 0
-1822 -845 -748 0
-1822 -845 -803 0
-1822 -845 -804 0
-1822 -689 0
-1822 -850 912 0
-1822 -850 -755 0
-1822 -850 -809 0
-1822 -850 -810 0
-1822 -696 0
-1822 889 0
-1823 722 0
-1823 839 0
-1823 -840 898 0
-1823 -840 -742 0
-1823 -840 -798 0
-1823 -683 0
-1823 -845 905 0
-1823 -845 -749 0
-1823 -845 -804 0
-1823 -690 0
-1823 -850 912 0
-1823 -850 -756 0
-1823 -850 -810 0
-1823 -697 0
-1823 890 0
-1824 781 0
-1824 -730 0
-1824 -671 0
-1824 -788 0
-1824 -841 0
-1824 944 0
-1824 950 0
-1825 781 0
-1825 -731 0
-1825 -672 0
-1825 -788 0
-1825 -789 0
-1825 -841 0
-1825 -842 0
-1825 945 0
-1825 950 0
-1826 781 0
-1826 -732 0
-1826 -673 0
-1826 -789 0
-1826 -790 0
-1826 -841 0
-1826 -842 0
-1826 -843 0
-1826 946 0
-1826 950 0
-1827 781 0
-1827 -733 0
-1827 -674 0
-1827 -790 0
-1827 -791 0
-1827 -842 0
-1827 -843 0
-1827 -844 0
-1827 947 0
-1827 950 0
-1828 781 0
-1828 -734 0
-1828 -675 0
-1828 -791 0
-1828 -792 0
-1828 -843 0
-1828 -844 0
-1828 948 0
-1828 950 0
-1829 781 0
-1829 -735 0
-1829 -676 0
-1829 -792 0
-1829 -844 0
-1829 949 0
-1829 950 0
-1830 781 0
-1830 664 0
-1830 -670 957 0
-1830 -670 -794 0
-1830 -670 -846 0
-1830 -737 0
-1830 -677 964 0
-1830 -677 -800 0
-1830 -677 -851 0
-1830 -744 0
-1830 -684 971 0
-1830 -684 -806 0
-1830 -684 -856 0
-1830 -751 0
-1830 944 0
-1831 781 0
-1831 665 0
-1831 -670 957 0
-1831 -670 -794 0
-1831 -670 -795 0
-1831 -670 -846 0
-1831 -670 -847 0
-1831 -738 0
-1831 -677 964 0
-1831 -677 -800 0
-1831 -677 -801 0
-1831 -677 -851 0
-1831 -677 -852 0
-1831 -745 0
-1831 -684 971 0
-1831 -684 -806 0
-1831 -684 -807 0
-1831 -684 -856 0
-1831 -684 -857 0
-1831 -752 0
-1831 945 0
-1832 781 0
-1832 666 0
-1832 -670 957 0
-1832 -670 -795 0
-1832 -670 -796 0
-1832 -670 -846 0
-1832 -670 -847 0
-1832 -670 -848 0
-1832 -739 0
-1832 -677 964 0
-1832 -677 -801 0
-1832 -677 -802 0
-1832 -677 -851 0
-1832 -677 -852 0
-1832 -677 -853 0
-1832 -746 0
-1832 -684 971 0
-1832 -684 -807 0
-1832 -684 -808 0
-1832 -684 -856 0
-1832 -684 -857 0
-1832 -684 -858 0
-1832 -753 0
-1832 946 0
-1833 781 0
-1833 667 0
-1833 -670 957 0
-1833 -670 -796 0
-1833 -670 -797 0
-1833 -670 -847 0
-1833 -670 -848 0
-1833 -670 -849 0
-1833 -740 0
-1833 -677 964 0
-1833 -677 -802 0
-1833 -677 -803 0
-1833 -677 -852 0
-1833 -677 -853 0
-1833 -677 -854 0
-1833 -747 0
-1833 -684 971 0
-1833 -684 -808 0
-1833 -684 -809 0
-1833 -684 -857 0
-1833 -684 -858 0
-1833 -684 -859 0
-1833 -754 0
-1833 947 0
-1834 781 0
-1834 668 0
-1834 -670 957 0
-1834 -670 -797 0
-1834 -670 -798 0
-1834 -670 -848 0
-1834 -670 -849 0
-1834 -741 0
-1834 -677 964 0
-1834 -677 -803 0
-1834 -677 -804 0
-1834 -677 -853 0
-1834 -677 -854 0
-1834 -748 0
-1834 -684 971 0
-1834 -684 -809 0
-1834 -684 -810 0
-1834 -684 -858 0
-1834 -684 -859 0
-1834 -755 0
-1834 948 0
-1835 781 0
-1835 669 0
-1835 -670 957 0
-1835 -670 -798 0
-1835 -670 -849 0
-1835 -742 0
-1835 -677 964 0
-1835 -677 -804 0
-1835 -677 -854 0
-1835 -749 0
-1835 -684 971 0
-1835 -684 -810 0
-1835 -684 -859 0
-1835 -756 0
-1835 949 0
-1836 781 0
-1836 782 0
-1836 -787 957 0
-1836 -787 -678 0
-1836 -787 -846 0
-1836 -737 0
-1836 -793 964 0
-1836 -793 -685 0
-1836 -793 -851 0
-1836 -744 0
-1836 -799 971 0
-1836 -799 -692 0
-1836 -799 -856 0
-1836 -751 0
-1836 944 0
-1837 781 0
-1837 782 783 0
-1837 -787 957 0
-1837 -787 -679 0
-1837 -787 -846 0
-1837 -787 -847 0
-1837 -738 0
-1837 -793 964 0
-1837 -793 -686 0
-1837 -793 -851 0
-1837 -793 -852 0
-1837 -745 0
-1837 -799 971 0
-1837 -799 -693 0
-1837 -799 -856 0
-1837 -799 -857 0
-1837 -752 0
-1837 945 0
-1838 781 0
-1838 783 784 0
-1838 -787 957 0
-1838 -787 -680 0
-1838 -787 -846 0
-1838 -787 -847 0
-1838 -787 -848 0
-1838 -739 0
-1838 -793 964 0
-1838 -793 -687 0
-1838 -793 -851 0
-1838 -793 -852 0
-1838 -793 -853 0
-1838 -746 0
-1838 -799 971 0
-1838 -799 -694 0
-1838 -799 -856 0
-1838 -799 -857 0
-1838 -799 -858 0
-1838 -753 0
-1838 946 0
-1839 781 0
-1839 784 785 0
-1839 -787 957 0
-1839 -787 -681 0
-1839 -787 -847 0
-1839 -787 -848 0
-1839 -787 -849 0
-1839 -740 0
-1839 -793 964 0
-1839 -793 -688 0
-1839 -793 -852 0
-1839 -793 -853 0
-1839 -793 -854 0
-1839 -747 0
-1839 -799 971 0
-1839 -799 -695 0
-1839 -799 -857 0
-1839 -799 -858 0
-1839 -799 -859 0
-1839 -754 0
-1839 947 0
-1840 781 0
-1840 785 786 0
-1840 -787 957 0
-1840 -787 -682 0
-1840 -787 -848 0
-1840 -787 -849 0
-1840 -741 0
-1840 -793 964 0
-1840 -793 -689 0
-1840 -793 -853 0
-1840 -793 -854 0
-1840 -748 0
-1840 -799 971 0
-1840 -799 -696 0
-1840 -799 -858 0
-1840 -799 -859 0
-1840 -755 0
-1840 948 0
-1841 781 0
-1841 786 0
-1841 -787 957 0
-1841 -787 -683 0
-1841 -787 -849 0
-1841 -742 0
-1841 -793 964 0
-1841 -793 -690 0
-1841 -793 -854 0
-1841 -749 0
-1841 -799 971 0
-1841 -799 -697 0
-1841 -799 -859 0
-1841 -756 0
-1841 949 0
-1842 781 0
-1842 836 0
-1842 -840 957 0
-1842 -840 -678 0
-1842 -840 -794 0
-1842 -737 0
-1842 -845 964 0
-1842 -845 -685 0
-1842 -845 -800 0
-1842 -744 0
-1842 -850 971 0
-1842 -850 -692 0
-1842 -850 -806 0
-1842 -751 0
-1842 944 0
-1843 781 0
-1843 836 837 0
-1843 -840 957 0
-1843 -840 -679 0
-1843 -840 -794 0
-1843 -840 -795 0
-1843 -738 0
-1843 -845 964 0
-1843 -845 -686 0
-1843 -845 -800 0
-1843 -845 -801 0
-1843 -745 0
-1843 -850 971 0
-1843 -850 -693 0
-1843 -850 -806 0
-1843 -850 -807 0
-1843 -752 0
-1843 945 0
-1844 781 0
-1844 836 837 838 0
-1844 -840 957 0
-1844 -840 -680 0
-1844 -840 -795 0
-1844 -840 -796 0
-1844 -739 0
-1844 -845 964 0
-1844 -845 -687 0
-1844 -845 -801 0
-1844 -845 -802 0
-1844 -746 0
-1844 -850 971 0
-1844 -850 -694 0
-1844 -850 -807 0
-1844 -850 -808 0
-1844 -753 0
-1844 946 0
-1845 781 0
-1845 837 838 839 0
-1845 -840 957 0
-1845 -840 -681 0
-1845 -840 -796 0
-1845 -840 -797 0
-1845 -740 0
-1845 -845 964 0
-1845 -845 -688 0
-1845 -845 -802 0
-1845 -845 -803 0
-1845 -747 0
-1845 -850 971 0
-1845 -850 -695 0
-1845 -850 -808 0
-1845 -850 -809 0
-1845 -754 0
-1845 947 0
-1846 781 0
-1846 838 839 0
-1846 -840 957 0
-1846 -840 -682 0
-1846 -840 -797 0
-1846 -840 -798 0
-1846 -741 0
-1846 -845 964 0
-1846 -845 -689 0
-1846 -845 -803 0
-1846 -845 -804 0
-1846 -748 0
-1846 -850 971 0
-1846 -850 -696 0
-1846 -850 -809 0
-1846 -850 -810 0
-1846 -755 0
-1846 948 0
-1847 781 0
-1847 839 0
-1847 -840 957 0
-1847 -840 -683 0
-1847 -840 -798 0
-1847 -742 0
-1847 -845 964 0
-1847 -845 -690 0
-1847 -845 -804 0
-1847 -749 0
-1847 -850 971 0
-1847 -850 -697 0
-1847 -850 -810 0
-1847 -756 0
-1847 949 0
-1848 835 0
-1848 -788 0
-1848 -671 0
-1848 -672 0
-1848 -730 0
-1848 -731 0
-1848 -841 0
-1848 -842 0
-1848 1003 0
-1848 1008 0
-1849 835 0
-1849 -789 0
-1849 -672 0
-1849 -673 0
-1849 -731 0
-1849 -732 0
-1849 -841 0
-1849 -842 0
-1849 -843 0
-1849 1004 0
-1849 1008 0
-1850 835 0
-1850 -790 0
-1850 -673 0
-1850 -674 0
-1850 -732 0
-1850 -733 0
-1850 -841 0
-1850 -842 0
-1850 -843 0
-1850 -844 0
-1850 1005 0
-1850 1008 0
-1851 835 0
-1851 -791 0
-1851 -674 0
-1851 -675 0
-1851 -733 0
-1851 -734 0
-1851 -842 0
-1851 -843 0
-1851 -844 0
-1851 1006 0
-1851 1008 0
-1852 835 0
-1852 -792 0
-1852 -675 0
-1852 -676 0
-1852 -734 0
-1852 -735 0
-1852 -843 0
-1852 -844 0
-1852 1007 0
-1852 1008 0
-1853 835 0
-1853 664 665 0
-1853 -670 1014 0
-1853 -670 -737 0
-1853 -670 -738 0
-1853 -670 -846 0
-1853 -670 -847 0
-1853 -794 0
-1853 -677 1020 0
-1853 -677 -744 0
-1853 -677 -745 0
-1853 -677 -851 0
-1853 -677 -852 0
-1853 -800 0
-1853 -684 1026 0
-1853 -684 -751 0
-1853 -684 -752 0
-1853 -684 -856 0
-1853 -684 -857 0
-1853 -806 0
-1853 1003 0
-1854 835 0
-1854 665 666 0
-1854 -670 1014 0
-1854 -670 -738 0
-1854 -670 -739 0
-1854 -670 -846 0
-1854 -670 -847 0
-1854 -670 -848 0
-1854 -795 0
-1854 -677 1020 0
-1854 -677 -745 0
-1854 -677 -746 0
-1854 -677 -851 0
-1854 -677 -852 0
-1854 -677 -853 0
-1854 -801 0
-1854 -684 1026 0
-1854 -684 -752 0
-1854 -684 -753 0
-1854 -684 -856 0
-1854 -684 -857 0
-1854 -684 -858 0
-1854 -807 0
-1854 1004 0
-1855 835 0
-1855 666 667 0
-1855 -670 1014 0
-1855 -670 -739 0
-1855 -670 -740 0
-1855 -670 -846 0
-1855 -670 -847 0
-1855 -670 -848 0
-1855 -670 -849 0
-1855 -796 0
-1855 -677 1020 0
-1855 -677 -746 0
-1855 -677 -747 0
-1855 -677 -851 0
-1855 -677 -852 0
-1855 -677 -853 0
-1855 -677 -854 0
-1855 -802 0
-1855 -684 1026 0
-1855 -684 -753 0
-1855 -684 -754 0
-1855 -684 -856 0
-1855 -684 -857 0
-1855 -684 -858 0
-1855 -684 -859 0
-1855 -808 0
-1855 1005 0
-1856 835 0
-1856 667 668 0
-1856 -670 1014 0
-1856 -670 -740 0
-1856 -670 -741 0
-1856 -670 -847 0
-1856 -670 -848 0
-1856 -670 -849 0
-1856 -797 0
-1856 -677 1020 0
-1856 -677 -747 0
-1856 -677 -748 0
-1856 -677 -852 0
-1856 -677 -853 0
-1856 -677 -854 0
-1856 -803 0
-1856 -684 1026 0
-1856 -684 -754 0
-1856 -684 -755 0
-1856 -684 -857 0
-1856 -684 -858 0
-1856 -684 -859 0
-1856 -809 0
-1856 1006 0
-1857 835 0
-1857 668 669 0
-1857 -670 1014 0
-1857 -670 -741 0
-1857 -670 -742 0
-1857 -670 -848 0
-1857 -670 -849 0
-1857 -798 0
-1857 -677 1020 0
-1857 -677 -748 0
-1857 -677 -749 0
-1857 -677 -853 0
-1857 -677 -854 0
-1857 -804 0
-1857 -684 1026 0
-1857 -684 -755 0
-1857 -684 -756 0
-1857 -684 -858 0
-1857 -684 -859 0
-1857 -810 0
-1857 1007 0
-1858 835 0
-1858 723 724 0
-1858 -729 1014 0
-1858 -729 -678 0
-1858 -729 -679 0
-1858 -729 -846 0
-1858 -729 -847 0
-1858 -794 0
-1858 -736 1020 0
-1858 -736 -685 0
-1858 -736 -686 0
-1858 -736 -851 0
-1858 -736 -852 0
-1858 -800 0
-1858 -743 1026 0
-1858 -743 -692 0
-1858 -743 -693 0
-1858 -743 -856 0
-1858 -743 -857 0
-1858 -806 0
-1858 1003 0
-1859 835 0
-1859 724 725 0
-1859 -729 1014 0
-1859 -729 -679 0
-1859 -729 -680 0
-1859 -729 -846 0
-1859 -729 -847 0
-1859 -729 -848 0
-1859 -795 0
-1859 -736 1020 0
-1859 -736 -686 0
-1859 -736 -687 0
-1859 -736 -851 0
-1859 -736 -852 0
-1859 -736 -853 0
-1859 -801 0
-1859 -743 1026 0
-1859 -743 -693 0
-1859 -743 -694 0
-1859 -743 -856 0
-1859 -743 -857 0
-1859 -743 -858 0
-1859 -807 0
-1859 1004 0
-1860 835 0
-1860 725 726 0
-1860 -729 1014 0
-1860 -729 -680 0
-1860 -729 -681 0
-1860 -729 -846 0
-1860 -729 -847 0
-1860 -729 -848 0
-1860 -729 -849 0
-1860 -796 0
-1860 -736 1020 0
-1860 -736 -687 0
-1860 -736 -688 0
-1860 -736 -851 0
-1860 -736 -852 0
-1860 -736 -853 0
-1860 -736 -854 0
-1860 -802 0
-1860 -743 1026 0
-1860 -743 -694 0
-1860 -743 -695 0
-1860 -743 -856 0
-1860 -743 -857 0
-1860 -743 -858 0
-1860 -743 -859 0
-1860 -808 0
-1860 1005 0
-1861 835 0
-1861 726 727 0
-1861 -729 1014 0
-1861 -729 -681 0
-1861 -729 -682 0
-1861 -729 -847 0
-1861 -729 -848 0
-1861 -729 -849 0
-1861 -797 0
-1861 -736 1020 0
-1861 -736 -688 0
-1861 -736 -689 0
-1861 -736 -852 0
-1861 -736 -853 0
-1861 -736 -854 0
-1861 -803 0
-1861 -743 1026 0
-1861 -743 -695 0
-1861 -743 -696 0
-1861 -743 -857 0
-1861 -743 -858 0
-1861 -743 -859 0
-1861 -809 0
-1861 1006 0
-1862 835 0
-1862 727 728 0
-1862 -729 1014 0
-1862 -729 -682 0
-1862 -729 -683 0
-1862 -729 -848 0
-1862 -729 -849 0
-1862 -798 0
-1862 -736 1020 0
-1862 -736 -689 0
-1862 -736 -690 0
-1862 -736 -853 0
-1862 -736 -854 0
-1862 -804 0
-1862 -743 1026 0
-1862 -743 -696 0
-1862 -743 -697 0
-1862 -743 -858 0
-1862 -743 -859 0
-1862 -810 0
-1862 1007 0
-1863 835 0
-1863 836 837 0
-1863 -840 1014 0
-1863 -840 -678 0
-1863 -840 -679 0
-1863 -840 -737 0
-1863 -840 -738 0
-1863 -794 0
-1863 -845 1020 0
-1863 -845 -685 0
-1863 -845 -686 0
-1863 -845 -744 0
-1863 -845 -745 0
-1863 -800 0
-1863 -850 1026 0
-1863 -850 -692 0
-1863 -850 -693 0
-1863 -850 -751 0
-1863 -850 -752 0
-1863 -806 0
-1863 1003 0
-1864 835 0
-1864 836 837 838 0
-1864 -840 1014 0
-1864 -840 -679 0
-1864 -840 -680 0
-1864 -840 -738 0
-1864 -840 -739 0
-1864 -795 0
-1864 -845 1020 0
-1864 -845 -686 0
-1864 -845 -687 0
-1864 -845 -745 0
-1864 -845 -746 0
-1864 -801 0
-1864 -850 1026 0
-1864 -850 -693 0
-1864 -850 -694 0
-1864 -850 -752 0
-1864 -850 -753 0
-1864 -807 0
-1864 1004 0
-1865 835 0
-1865 836 837 838 839 0
-1865 -840 1014 0
-1865 -840 -680 0
-1865 -840 -681 0
-1865 -840 -739 0
-1865 -840 -740 0
-1865 -796 0
-1865 -845 1020 0
-1865 -845 -687 0
-1865 -845 -688 0
-1865 -845 -746 0
-1865 -845 -747 0
-1865 -802 0
-1865 -850 1026 0
-1865 -850 -694 0
-1865 -850 -695 0
-1865 -850 -753 0
-1865 -850 -754 0
-1865 -808 0
-1865 1005 0
-1866 835 0
-1866 837 838 839 0
-1866 -840 1014 0
-1866 -840 -681 0
-1866 -840 -682 0
-1866 -840 -740 0
-1866 -840 -741 0
-1866 -797 0
-1866 -845 1020 0
-1866 -845 -688 0
-1866 -845 -689 0
-1866 -845 -747 0
-1866 -845 -748 0
-1866 -803 0
-1866 -850 1026 0
-1866 -850 -695 0
-1866 -850 -696 0
-1866 -850 -754 0
-1866 -850 -755 0
-1866 -809 0
-1866 1006 0
-1867 835 0
-1867 838 839 0
-1867 -840 1014 0
-1867 -840 -682 0
-1867 -840 -683 0
-1867 -840 -741 0
-1867 -840 -742 0
-1867 -798 0
-1867 -845 1020 0
-1867 -845 -689 0
-1867 -845 -690 0
-1867 -845 -748 0
-1867 -845 -749 0
-1867 -804 0
-1867 -850 1026 0
-1867 -850 -696 0
-1867 -850 -697 0
-1867 -850 -755 0
-1867 -850 -756 0
-1867 -810 0
-1867 1007 0
-1868 884 0
-1868 -841 0
-1868 -671 0
-1868 -672 0
-1868 -673 0
-1868 -730 0
-1868 -731 0
-1868 -732 0
-1868 -788 0
-1868 -789 0
-1868 -790 0
-1868 1057 0
-1868 1061 0
-1869 884 0
-1869 -842 0
-1869 -672 0
-1869 -673 0
-1869 -674 0
-1869 -731 0
-1869 -732 0
-1869 -733 0
-1869 -788 0
-1869 -789 0
-1869 -790 0
-1869 -791 0
-1869 1058 0
-1869 1061 0
-1870 884 0
-1870 -843 0
-1870 -673 0
-1870 -674 0
-1870 -675 0
-1870 -732 0
-1870 -733 0
-1870 -734 0
-1870 -789 0
-1870 -790 0
-1870 -791 0
-1870 -792 0
-1870 1059 0
-1870 1061 0
-1871 884 0
-1871 -844 0
-1871 -674 0
-1871 -675 0
-1871 -676 0
-1871 -733 0
-1871 -734 0
-1871 -735 0
-1871 -790 0
-1871 -791 0
-1871 -792 0
-1871 1060 0
-1871 1061 0
-1872 884 0
-1872 664 665 666 0
-1872 -670 1066 0
-1872 -670 -737 0
-1872 -670 -738 0
-1872 -670 -739 0
-1872 -670 -794 0
-1872 -670 -795 0
-1872 -670 -796 0
-1872 -846 0
-1872 -677 1071 0
-1872 -677 -744 0
-1872 -677 -745 0
-1872 -677 -746 0
-1872 -677 -800 0
-1872 -677 -801 0
-1872 -677 -802 0
-1872 -851 0
-1872 -684 1076 0
-1872 -684 -751 0
-1872 -684 -752 0
-1872 -684 -753 0
-1872 -684 -806 0
-1872 -684 -807 0
-1872 -684 -808 0
-1872 -856 0
-1872 1057 0
-1873 884 0
-1873 665 666 667 0
-1873 -670 1066 0
-1873 -670 -738 0
-1873 -670 -739 0
-1873 -670 -740 0
-1873 -670 -794 0
-1873 -670 -795 0
-1873 -670 -796 0
-1873 -670 -797 0
-1873 -847 0
-1873 -677 1071 0
-1873 -677 -745 0
-1873 -677 -746 0
-1873 -677 -747 0
-1873 -677 -800 0
-1873 -677 -801 0
-1873 -677 -802 0
-1873 -677 -803 0
-1873 -852 0
-1873 -684 1076 0
-1873 -684 -752 0
-1873 -684 -753 0
-1873 -684 -754 0
-1873 -684 -806 0
-1873 -684 -807 0
-1873 -684 -808 0
-1873 -684 -809 0
-1873 -857 0
-1873 1058 0
-1874 884 0
-1874 666 667 668 0
-1874 -670 1066 0
-1874 -670 -739 0
-1874 -670 -740 0
-1874 -670 -741 0
-1874 -670 -795 0
-1874 -670 -796 0
-1874 -670 -797 0
-1874 -670 -798 0
-1874 -848 0
-1874 -677 1071 0
-1874 -677 -746 0
-1874 -677 -747 0
-1874 -677 -748 0
-1874 -677 -801 0
-1874 -677 -802 0
-1874 -677 -803 0
-1874 -677 -804 0
-1874 -853 0
-1874 -684 1076 0
-1874 -684 -753 0
-1874 -684 -754 0
-1874 -684 -755 0
-1874 -684 -807 0
-1874 -684 -808 0
-1874 -684 -809 0
-1874 -684 -810 0
-1874 -858 0
-1874 1059 0
-1875 884 0
-1875 667 668 669 0
-1875 -670 1066 0
-1875 -670 -740 0
-1875 -670 -741 0
-1875 -670 -742 0
-1875 -670 -796 0
-1875 -670 -797 0
-1875 -670 -798 0
-1875 -849 0
-1875 -677 1071 0
-1875 -677 -747 0
-1875 -677 -748 0
-1875 -677 -749 0
-1875 -677 -802 0
-1875 -677 -803 0
-1875 -677 -804 0
-1875 -854 0
-1875 -684 1076 0
-1875 -684 -754 0
-1875 -684 -755 0
-1875 -684 -756 0
-1875 -684 -808 0
-1875 -684 -809 0
-1875 -684 -810 0
-1875 -859 0
-1875 1060 0
-1876 884 0
-1876 723 724 725 0
-1876 -729 1066 0
-1876 -729 -678 0
-1876 -729 -679 0
-1876 -729 -680 0
-1876 -729 -794 0
-1876 -729 -795 0
-1876 -729 -796 0
-1876 -846 0
-1876 -736 1071 0
-1876 -736 -685 0
-1876 -736 -686 0
-1876 -736 -687 0
-1876 -736 -800 0
-1876 -736 -801 0
-1876 -736 -802 0
-1876 -851 0
-1876 -743 1076 0
-1876 -743 -692 0
-1876 -743 -693 0
-1876 -743 -694 0
-1876 -743 -806 0
-1876 -743 -807 0
-1876 -743 -808 0
-1876 -856 0
-1876 1057 0
-1877 884 0
-1877 724 725 726 0
-1877 -729 1066 0
-1877 -729 -679 0
-1877 -729 -680 0
-1877 -729 -681 0
-1877 -729 -794 0
-1877 -729 -795 0
-1877 -729 -796 0
-1877 -729 -797 0
-1877 -847 0
-1877 -736 1071 0
-1877 -736 -686 0
-1877 -736 -687 0
-1877 -736 -688 0
-1877 -736 -800 0
-1877 -736 -801 0
-1877 -736 -802 0
-1877 -736 -803 0
-1877 -852 0
-1877 -743 1076 0
-1877 -743 -693 0
-1877 -743 -694 0
-1877 -743 -695 0
-1877 -743 -806 0
-1877 -743 -807 0
-1877 -743 -808 0
-1877 -743 -809 0
-1877 -857 0
-1877 1058 0
-1878 884 0
-1878 725 726 727 0
-1878 -729 1066 0
-1878 -729 -680 0
-1878 -729 -681 0
-1878 -729 -682 0
-1878 -729 -795 0
-1878 -729 -796 0
-1878 -729 -797 0
-1878 -729 -798 0
-1878 -848 0
-1878 -736 1071 0
-1878 -736 -687 0
-1878 -736 -688 0
-1878 -736 -689 0
-1878 -736 -801 0
-1878 -736 -802 0
-1878 -736 -803 0
-1878 -736 -804 0
-1878 -853 0
-1878 -743 1076 0
-1878 -743 -694 0
-1878 -743 -695 0
-1878 -743 -696 0
-1878 -743 -807 0
-1878 -743 -808 0
-1878 -743 -809 0
-1878 -743 -810 0
-1878 -858 0
-1878 1059 0
-1879 884 0
-1879 726 727 728 0
-1879 -729 1066 0
-1879 -729 -681 0
-1879 -729 -682 0
-1879 -729 -683 0
-1879 -729 -796 0
-1879 -729 -797 0
-1879 -729 -798 0
-1879 -849 0
-1879 -736 1071 0
-1879 -736 -688 0
-1879 -736 -689 0
-1879 -736 -690 0
-1879 -736 -802 0
-1879 -736 -803 0
-1879 -736 -804 0
-1879 -854 0
-1879 -743 1076 0
-1879 -743 -695 0
-1879 -743 -696 0
-1879 -743 -697 0
-1879 -743 -808 0
-1879 -743 -809 0
-1879 -743 -810 0
-1879 -859 0
-1879 1060 0
-1880 884 0
-1880 782 783 784 0
-1880 -787 1066 0
-1880 -787 -678 0
-1880 -787 -679 0
-1880 -787 -680 0
-1880 -787 -737 0
-1880 -787 -738 0
-1880 -787 -739 0
-1880 -846 0
-1880 -793 1071 0
-1880 -793 -685 0
-1880 -793 -686 0
-1880 -793 -687 0
-1880 -793 -744 0
-1880 -793 -745 0
-1880 -793 -746 0
-1880 -851 0
-1880 -799 1076 0
-1880 -799 -692 0
-1880 -799 -693 0
-1880 -799 -694 0
-1880 -799 -751 0
-1880 -799 -752 0
-1880 -799 -753 0
-1880 -856 0
-1880 1057 0
-1881 884 0
-1881 782 783 784 785 0
-1881 -787 1066 0
-1881 -787 -679 0
-1881 -787 -680 0
-1881 -787 -681 0
-1881 -787 -738 0
-1881 -787 -739 0
-1881 -787 -740 0
-1881 -847 0
-1881 -793 1071 0
-1881 -793 -686 0
-1881 -793 -687 0
-1881 -793 -688 0
-1881 -793 -745 0
-1881 -793 -746 0
-1881 -793 -747 0
-1881 -852 0
-1881 -799 1076 0
-1881 -799 -693 0
-1881 -799 -694 0
-1881 -799 -695 0
-1881 -799 -752 0
-1881 -799 -753 0
-1881 -799 -754 0
-1881 -857 0
-1881 1058 0
-1882 884 0
-1882 783 784 785 786 0
-1882 -787 1066 0
-1882 -787 -680 0
-1882 -787 -681 0
-1882 -787 -682 0
-1882 -787 -739 0
-1882 -787 -740 0
-1882 -787 -741 0
-1882 -848 0
-1882 -793 1071 0
-1882 -793 -687 0
-1882 -793 -688 0
-1882 -793 -689 0
-1882 -793 -746 0
-1882 -793 -747 0
-1882 -793 -748 0
-1882 -853 0
-1882 -799 1076 0
-1882 -799 -694 0
-1882 -799 -695 0
-1882 -799 -696 0
-1882 -799 -753 0
-1882 -799 -754 0
-1882 -799 -755 0
-1882 -858 0
-1882 1059 0
-1883 884 0
-1883 784 785 786 0
-1883 -787 1066 0
-1883 -787 -681 0
-1883 -787 -682 0
-1883 -787 -683 0
-1883 -787 -740 0
-1883 -787 -741 0
-1883 -787 -742 0
-1883 -849 0
-1883 -793 1071 0
-1883 -793 -688 0
-1883 -793 -689 0
-1883 -793 -690 0
-1883 -793 -747 0
-1883 -793 -748 0
-1883 -793 -749 0
-1883 -854 0
-1883 -799 1076 0
-1883 -799 -695 0
-1883 -799 -696 0
-1883 -799 -697 0
-1883 -799 -754 0
-1883 -799 -755 0
-1883 -799 -756 0
-1883 -859 0
-1883 1060 0
-1884 943 0
-1884 -892 0
-1884 -951 0
-1884 -1009 0
-1884 -1062 0
-1884 1106 0
-1884 1112 0
-1885 943 0
-1885 -893 0
-1885 -952 0
-1885 -1009 0
-1885 -1010 0
-1885 -1062 0
-1885 -1063 0
-1885 1107 0
-1885 1112 0
-1886 943 0
-1886 -894 0
-1886 -953 0
-1886 -1010 0
-1886 -1011 0
-1886 -1062 0
-1886 -1063 0
-1886 -1064 0
-1886 1108 0
-1886 1112 0
-1887 943 0
-1887 -895 0
-1887 -954 0
-1887 -1011 0
-1887 -1012 0
-1887 -1063 0
-1887 -1064 0
-1887 -1065 0
-1887 1109 0
-1887 1112 0
-1888 943 0
-1888 -896 0
-1888 -955 0
-1888 -1012 0
-1888 -1013 0
-1888 -1064 0
-1888 -1065 0
-1888 1110 0
-1888 1112 0
-1889 943 0
-1889 -897 0
-1889 -956 0
-1889 -1013 0
-1889 -1065 0
-1889 1111 0
-1889 1112 0
-1890 943 0
-1890 944 0
-1890 -950 1119 0
-1890 -950 -1015 0
-1890 -950 -1067 0
-1890 -899 0
-1890 -957 1126 0
-1890 -957 -1021 0
-1890 -957 -1072 0
-1890 -906 0
-1890 -964 1133 0
-1890 -964 -1027 0
-1890 -964 -1077 0
-1890 -913 0
-1890 1106 0
-1891 943 0
-1891 945 0
-1891 -950 1119 0
-1891 -950 -1015 0
-1891 -950 -1016 0
-1891 -950 -1067 0
-1891 -950 -1068 0
-1891 -900 0
-1891 -957 1126 0
-1891 -957 -1021 0
-1891 -957 -1022 0
-1891 -957 -1072 0
-1891 -957 -1073 0
-1891 -907 0
-1891 -964 1133 0
-1891 -964 -1027 0
-1891 -964 -1028 0
-1891 -964 -1077 0
-1891 -964 -1078 0
-1891 -914 0
-1891 1107 0
-1892 943 0
-1892 946 0
-1892 -950 1119 0
-1892 -950 -1016 0
-1892 -950 -1017 0
-1892 -950 -1067 0
-1892 -950 -1068 0
-1892 -950 -1069 0
-1892 -901 0
-1892 -957 1126 0
-1892 -957 -1022 0
-1892 -957 -1023 0
-1892 -957 -1072 0
-1892 -957 -1073 0
-1892 -957 -1074 0
-1892 -908 0
-1892 -964 1133 0
-1892 -964 -1028 0
-1892 -964 -1029 0
-1892 -964 -1077 0
-1892 -964 -1078 0
-1892 -964 -1079 0
-1892 -915 0
-1892 1108 0
-1893 943 0
-1893 947 0
-1893 -950 1119 0
-1893 -950 -1017 0
-1893 -950 -1018 0
-1893 -950 -1068 0
-1893 -950 -1069 0
-1893 -950 -1070 0
-1893 -902 0
-1893 -957 1126 0
-1893 -957 -1023 0
-1893 -957 -1024 0
-1893 -957 -1073 0
-1893 -957 -1074 0
-1893 -957 -1075 0
-1893 -909 0
-1893 -964 1133 0
-1893 -964 -1029 0
-1893 -964 -1030 0
-1893 -964 -1078 0
-1893 -964 -1079 0
-1893 -964 -1080 0
-1893 -916 0
-1893 1109 0
-1894 943 0
-1894 948 0
-1894 -950 1119 0
-1894 -950 -1018 0
-1894 -950 -1019 0
-1894 -950 -1069 0
-1894 -950 -1070 0
-1894 -903 0
-1894 -957 1126 0
-1894 -957 -1024 0
-1894 -957 -1025 0
-1894 -957 -1074 0
-1894 -957 -1075 0
-1894 -910 0
-1894 -964 1133 0
-1894 -964 -1030 0
-1894 -964 -1031 0
-1894 -964 -1079 0
-1894 -964 -1080 0
-1894 -917 0
-1894 1110 0
-1895 943 0
-1895 949 0
-1895 -950 1119 0
-1895 -950 -1019 0
-1895 -950 -1070 0
-1895 -904 0
-1895 -957 1126 0
-1895 -957 -1025 0
-1895 -957 -1075 0
-1895 -911 0
-1895 -964 1133 0
-1895 -964 -1031 0
-1895 -964 -1080 0
-1895 -918 0
-1895 1111 0
-1896 943 0
-1896 1003 0
-1896 -1008 1119 0
-1896 -1008 -958 0
-1896 -1008 -1067 0
-1896 -899 0
-1896 -1014 1126 0
-1896 -1014 -965 0
-1896 -1014 -1072 0
-1896 -906 0
-1896 -1020 1133 0
-1896 -1020 -972 0
-1896 -1020 -1077 0
-1896 -913 0
-1896 1106 0
-1897 943 0
-1897 1003 1004 0
-1897 -1008 1119 0
-1897 -1008 -959 0
-1897 -1008 -1067 0
-1897 -1008 -1068 0
-1897 -900 0
-1897 -1014 1126 0
-1897 -1014 -966 0
-1897 -1014 -1072 0
-1897 -1014 -1073 0
-1897 -907 0
-1897 -1020 1133 0
-1897 -1020 -973 0
-1897 -1020 -1077 0
-1897 -1020 -1078 0
-1897 -914 0
-1897 1107 0
-1898 943 0
-1898 1004 1005 0
-1898 -1008 1119 0
-1898 -1008 -960 0
-1898 -1008 -1067 0
-1898 -1008 -1068 0
-1898 -1008 -1069 0
-1898 -901 0
-1898 -1014 1126 0
-1898 -1014 -967 0
-1898 -1014 -1072 0
-1898 -1014 -1073 0
-1898 -1014 -1074 0
-1898 -908 0
-1898 -1020 1133 0
-1898 -1020 -974 0
-1898 -1020 -1077 0
-1898 -1020 -1078 0
-1898 -1020 -1079 0
-1898 -915 0
-1898 1108 0
-1899 943 0
-1899 1005 1006 0
-1899 -1008 1119 0
-1899 -1008 -961 0
-1899 -1008 -1068 0
-1899 -1008 -1069 0
-1899 -1008 -1070 0
-1899 -902 0
-1899 -1014 1126 0
-1899 -1014 -968 0
-1899 -1014 -1073 0
-1899 -1014 -1074 0
-1899 -1014 -1075 0
-1899 -909 0
-1899 -1020 1133 0
-1899 -1020 -975 0
-1899 -1020 -1078 0
-1899 -1020 -1079 0
-1899 -1020 -1080 0
-1899 -916 0
-1899 1109 0
-1900 943 0
-1900 1006 1007 0
-1900 -1008 1119 0
-1900 -1008 -962 0
-1900 -1008 -1069 0
-1900 -1008 -1070 0
-1900 -903 0
-1900 -1014 1126 0
-1900 -1014 -969 0
-1900 -1014 -1074 0
-1900 -1014 -1075 0
-1900 -910 0
-1900 -1020 1133 0
-1900 -1020 -976 0
-1900 -1020 -1079 0
-1900 -1020 -1080 0
-1900 -917 0
-1900 1110 0
-1901 943 0
-1901 1007 0
-1901 -1008 1119 0
-1901 -1008 -963 0
-1901 -1008 -1070 0
-1901 -904 0
-1901 -1014 1126 0
-1901 -1014 -970 0
-1901 -1014 -1075 0
-1901 -911 0
-1901 -1020 1133 0
-1901 -1020 -977 0
-1901 -1020 -1080 0
-1901 -918 0
-1901 1111 0
-1902 943 0
-1902 1057 0
-1902 -1061 1119 0
-1902 -1061 -958 0
-1902 -1061 -1015 0
-1902 -899 0
-1902 -1066 1126 0
-1902 -1066 -965 0
-1902 -1066 -1021 0
-1902 -906 0
-1902 -1071 1133 0
-1902 -1071 -972 0
-1902 -1071 -1027 0
-1902 -913 0
-1902 1106 0
-1903 943 0
-1903 1057 1058 0
-1903 -1061 1119 0
-1903 -1061 -959 0
-1903 -1061 -1015 0
-1903 -1061 -1016 0
-1903 -900 0
-1903 -1066 1126 0
-1903 -1066 -966 0
-1903 -1066 -1021 0
-1903 -1066 -1022 0
-1903 -907 0
-1903 -1071 1133 0
-1903 -1071 -973 0
-1903 -1071 -1027 0
-1903 -1071 -1028 0
-1903 -914 0
-1903 1107 0
-1904 943 0
-1904 1057 1058 1059 0
-1904 -1061 1119 0
-1904 -1061 -960 0
-1904 -1061 -1016 0
-1904 -1061 -1017 0
-1904 -901 0
-1904 -1066 1126 0
-1904 -1066 -967 0
-1904 -1066 -1022 0
-1904 -1066 -1023 0
-1904 -908 0
-1904 -1071 1133 0
-1904 -1071 -974 0
-1904 -1071 -1028 0
-1904 -1071 -1029 0
-1904 -915 0
-1904 1108 0
-1905 943 0
-1905 1058 1059 1060 0
-1905 -1061 1119 0
-1905 -1061 -961 0
-1905 -1061 -1017 0
-1905 -1061 -1018 0
-1905 -902 0
-1905 -1066 1126 0
-1905 -1066 -968 0
-1905 -1066 -1023 0
-1905 -1066 -1024 0
-1905 -909 0
-1905 -1071 1133 0
-1905 -1071 -975 0
-1905 -1071 -1029 0
-1905 -1071 -1030 0
-1905 -916 0
-1905 1109 0
-1906 943 0
-1906 1059 1060 0
-1906 -1061 1119 0
-1906 -1061 -962 0
-1906 -1061 -1018 0
-1906 -1061 -1019 0
-1906 -903 0
-1906 -1066 1126 0
-1906 -1066 -969 0
-1906 -1066 -1024 0
-1906 -1066 -1025 0
-1906 -910 0
-1906 -1071 1133 0
-1906 -1071 -976 0
-1906 -1071 -1030 0
-1906 -1071 -1031 0
-1906 -917 0
-1906 1110 0
-1907 943 0
-1907 1060 0
-1907 -1061 1119 0
-1907 -1061 -963 0
-1907 -1061 -1019 0
-1907 -904 0
-1907 -1066 1126 0
-1907 -1066 -970 0
-1907 -1066 -1025 0
-1907 -911 0
-1907 -1071 1133 0
-1907 -1071 -977 0
-1907 -1071 -1031 0
-1907 -918 0
-1907 1111 0
-1908 1002 0
-1908 -951 0
-1908 -892 0
-1908 -1009 0
-1908 -1062 0
-1908 1165 0
-1908 1171 0
-1909 1002 0
-1909 -952 0
-1909 -893 0
-1909 -1009 0
-1909 -1010 0
-1909 -1062 0
-1909 -1063 0
-1909 1166 0
-1909 1171 0
-1910 1002 0
-1910 -953 0
-1910 -894 0
-1910 -1010 0
-1910 -1011 0
-1910 -1062 0
-1910 -1063 0
-1910 -1064 0
-1910 1167 0
-1910 1171 0
-1911 1002 0
-1911 -954 0
-1911 -895 0
-1911 -1011 0
-1911 -1012 0
-1911 -1063 0
-1911 -1064 0
-1911 -1065 0
-1911 1168 0
-1911 1171 0
-1912 1002 0
-1912 -955 0
-1912 -896 0
-1912 -1012 0
-1912 -1013 0
-1912 -1064 0
-1912 -1065 0
-1912 1169 0
-1912 1171 0
-1913 1002 0
-1913 -956 0
-1913 -897 0
-1913 -1013 0
-1913 -1065 0
-1913 1170 0
-1913 1171 0
-1914 1002 0
-1914 885 0
-1914 -891 1178 0
-1914 -891 -1015 0
-1914 -891 -1067 0
-1914 -958 0
-1914 -898 1185 0
-1914 -898 -1021 0
-1914 -898 -1072 0
-1914 -965 0
-1914 -905 1192 0
-1914 -905 -1027 0
-1914 -905 -1077 0
-1914 -972 0
-1914 1165 0
-1915 1002 0
-1915 886 0
-1915 -891 1178 0
-1915 -891 -1015 0
-1915 -891 -1016 0
-1915 -891 -1067 0
-1915 -891 -1068 0
-1915 -959 0
-1915 -898 1185 0
-1915 -898 -1021 0
-1915 -898 -1022 0
-1915 -898 -1072 0
-1915 -898 -1073 0
-1915 -966 0
-1915 -905 1192 0
-1915 -905 -1027 0
-1915 -905 -1028 0
-1915 -905 -1077 0
-1915 -905 -1078 0
-1915 -973 0
-1915 1166 0
-1916 1002 0
-1916 887 0
-1916 -891 1178 0
-1916 -891 -1016 0
-1916 -891 -1017 0
-1916 -891 -1067 0
-1916 -891 -1068 0
-1916 -891 -1069 0
-1916 -960 0
-1916 -898 1185 0
-1916 -898 -1022 0
-1916 -898 -1023 0
-1916 -898 -1072 0
-1916 -898 -1073 0
-1916 -898 -1074 0
-1916 -967 0
-1916 -905 1192 0
-1916 -905 -1028 0
-1916 -905 -1029 0
-1916 -905 -1077 0
-1916 -905 -1078 0
-1916 -905 -1079 0
-1916 -974 0
-1916 1167 0
-1917 1002 0
-1917 888 0
-1917 -891 1178 0
-1917 -891 -1017 0
-1917 -891 -1018 0
-1917 -891 -1068 0
-1917 -891 -1069 0
-1917 -891 -1070 0
-1917 -961 0
-1917 -898 1185 0
-1917 -898 -1023 0
-1917 -898 -1024 0
-1917 -898 -1073 0
-1917 -898 -1074 0
-1917 -898 -1075 0
-1917 -968 0
-1917 -905 1192 0
-1917 -905 -1029 0
-1917 -905 -1030 0
-1917 -905 -1078 0
-1917 -905 -1079 0
-1917 -905 -1080 0
-1917 -975 0
-1917 1168 0
-1918 1002 0
-1918 889 0
-1918 -891 1178 0
-1918 -891 -1018 0
-1918 -891 -1019 0
-1918 -891 -1069 0
-1918 -891 -1070 0
-1918 -962 0
-1918 -898 1185 0
-1918 -898 -1024 0
-1918 -898 -1025 0
-1918 -898 -1074 0
-1918 -898 -1075 0
-1918 -969 0
-1918 -905 1192 0
-1918 -905 -1030 0
-1918 -905 -1031 0
-1918 -905 -1079 0
-1918 -905 -1080 0
-1918 -976 0
-1918 1169 0
-1919 1002 0
-1919 890 0
-1919 -891 1178 0
-1919 -891 -1019 0
-1919 -891 -1070 0
-1919 -963 0
-1919 -898 1185 0
-1919 -898 -1025 0
-1919 -898 -1075 0
-1919 -970 0
-1919 -905 1192 0
-1919 -905 -1031 0
-1919 -905 -1080 0
-1919 -977 0
-1919 1170 0
-1920 1002 0
-1920 1003 0
-1920 -1008 1178 0
-1920 -1008 -899 0
-1920 -1008 -1067 0
-1920 -958 0
-1920 -1014 1185 0
-1920 -1014 -906 0
-1920 -1014 -1072 0
-1920 -965 0
-1920 -1020 1192 0
-1920 -1020 -913 0
-1920 -1020 -1077 0
-1920 -972 0
-1920 1165 0
-1921 1002 0
-1921 1003 1004 0
-1921 -1008 1178 0
-1921 -1008 -900 0
-1921 -1008 -1067 0
-1921 -1008 -1068 0
-1921 -959 0
-1921 -1014 1185 0
-1921 -1014 -907 0
-1921 -1014 -1072 0
-1921 -1014 -1073 0
-1921 -966 0
-1921 -1020 1192 0
-1921 -1020 -914 0
-1921 -1020 -1077 0
-1921 -1020 -1078 0
-1921 -973 0
-1921 1166 0
-1922 1002 0
-1922 1004 1005 0
-1922 -1008 1178 0
-1922 -1008 -901 0
-1922 -1008 -1067 0
-1922 -1008 -1068 0
-1922 -1008 -1069 0
-1922 -960 0
-1922 -1014 1185 0
-1922 -1014 -908 0
-1922 -1014 -1072 0
-1922 -1014 -1073 0
-1922 -1014 -1074 0
-1922 -967 0
-1922 -1020 1192 0
-1922 -1020 -915 0
-1922 -1020 -1077 0
-1922 -1020 -1078 0
-1922 -1020 -1079 0
-1922 -974 0
-1922 1167 0
-1923 1002 0
-1923 1005 1006 0
-1923 -1008 1178 0
-1923 -1008 -902 0
-1923 -1008 -1068 0
-1923 -1008 -1069 0
-1923 -1008 -1070 0
-1923 -961 0
-1923 -1014 1185 0
-1923 -1014 -909 0
-1923 -1014 -1073 0
-1923 -1014 -1074 0
-1923 -1014 -1075 0
-1923 -968 0
-1923 -1020 1192 0
-1923 -1020 -916 0
-1923 -1020 -1078 0
-1923 -1020 -1079 0
-1923 -1020 -1080 0
-1923 -975 0
-1923 1168 0
-1924 1002 0
-1924 1006 1007 0
-1924 -1008 1178 0
-1924 -1008 -903 0
-1924 -1008 -1069 0
-1924 -1008 -1070 0
-1924 -962 0
-1924 -1014 1185 0
-1924 -1014 -910 0
-1924 -1014 -1074 0
-1924 -1014 -1075 0
-1924 -969 0
-1924 -1020 1192 0
-1924 -1020 -917 0
-1924 -1020 -1079 0
-1924 -1020 -1080 0
-1924 -976 0
-1924 1169 0
-1925 1002 0
-1925 1007 0
-1925 -1008 1178 0
-1925 -1008 -904 0
-1925 -1008 -1070 0
-1925 -963 0
-1925 -1014 1185 0
-1925 -1014 -911 0
-1925 -1014 -1075 0
-1925 -970 0
-1925 -1020 1192 0
-1925 -1020 -918 0
-1925 -1020 -1080 0
-1925 -977 0
-1925 1170 0
-1926 1002 0
-1926 1057 0
-1926 -1061 1178 0
-1926 -1061 -899 0
-1926 -1061 -1015 0
-1926 -958 0
-1926 -1066 1185 0
-1926 -1066 -906 0
-1926 -1066 -1021 0
-1926 -965 0
-1926 -1071 1192 0
-1926 -1071 -913 0
-1926 -1071 -1027 0
-1926 -972 0
-1926 1165 0
-1927 1002 0
-1927 1057 1058 0
-1927 -1061 1178 0
-1927 -1061 -900 0
-1927 -1061 -1015 0
-1927 -1061 -1016 0
-1927 -959 0
-1927 -1066 1185 0
-1927 -1066 -907 0
-1927 -1066 -1021 0
-1927 -1066 -1022 0
-1927 -966 0
-1927 -1071 1192 0
-1927 -1071 -914 0
-1927 -1071 -1027 0
-1927 -1071 -1028 0
-1927 -973 0
-1927 1166 0
-1928 1002 0
-1928 1057 1058 1059 0
-1928 -1061 1178 0
-1928 -1061 -901 0
-1928 -1061 -1016 0
-1928 -1061 -1017 0
-1928 -960 0
-1928 -1066 1185 0
-1928 -1066 -908 0
-1928 -1066 -1022 0
-1928 -1066 -1023 0
-1928 -967 0
-1928 -1071 1192 0
-1928 -1071 -915 0
-1928 -1071 -1028 0
-1928 -1071 -1029 0
-1928 -974 0
-1928 1167 0
-1929 1002 0
-1929 1058 1059 1060 0
-1929 -1061 1178 0
-1929 -1061 -902 0
-1929 -1061 -1017 0
-1929 -1061 -1018 0
-1929 -961 0
-1929 -1066 1185 0
-1929 -1066 -909 0
-1929 -1066 -1023 0
-1929 -1066 -1024 0
-1929 -968 0
-1929 -1071 1192 0
-1929 -1071 -916 0
-1929 -1071 -1029 0
-1929 -1071 -1030 0
-1929 -975 0
-1929 1168 0
-1930 1002 0
-1930 1059 1060 0
-1930 -1061 1178 0
-1930 -1061 -903 0
-1930 -1061 -1018 0
-1930 -1061 -1019 0
-1930 -962 0
-1930 -1066 1185 0
-1930 -1066 -910 0
-1930 -1066 -1024 0
-1930 -1066 -1025 0
-1930 -969 0
-1930 -1071 1192 0
-1930 -1071 -917 0
-1930 -1071 -1030 0
-1930 -1071 -1031 0
-1930 -976 0
-1930 1169 0
-1931 1002 0
-1931 1060 0
-1931 -1061 1178 0
-1931 -1061 -904 0
-1931 -1061 -1019 0
-1931 -963 0
-1931 -1066 1185 0
-1931 -1066 -911 0
-1931 -1066 -1025 0
-1931 -970 0
-1931 -1071 1192 0
-1931 -1071 -918 0
-1931 -1071 -1031 0
-1931 -977 0
-1931 1170 0
-1932 1056 0
-1932 -1009 0
-1932 -892 0
-1932 -893 0
-1932 -951 0
-1932 -952 0
-1932 -1062 0
-1932 -1063 0
-1932 1224 0
-1932 1229 0
-1933 1056 0
-1933 -1010 0
-1933 -893 0
-1933 -894 0
-1933 -952 0
-1933 -953 0
-1933 -1062 0
-1933 -1063 0
-1933 -1064 0
-1933 1225 0
-1933 1229 0
-1934 1056 0
-1934 -1011 0
-1934 -894 0
-1934 -895 0
-1934 -953 0
-1934 -954 0
-1934 -1062 0
-1934 -1063 0
-1934 -1064 0
-1934 -1065 0
-1934 1226 0
-1934 1229 0
-1935 1056 0
-1935 -1012 0
-1935 -895 0
-1935 -896 0
-1935 -954 0
-1935 -955 0
-1935 -1063 0
-1935 -1064 0
-1935 -1065 0
-1935 1227 0
-1935 1229 0
-1936 1056 0
-1936 -1013 0
-1936 -896 0
-1936 -897 0
-1936 -955 0
-1936 -956 0
-1936 -1064 0
-1936 -1065 0
-1936 1228 0
-1936 1229 0
-1937 1056 0
-1937 885 886 0
-1937 -891 1235 0
-1937 -891 -958 0
-1937 -891 -959 0
-1937 -891 -1067 0
-1937 -891 -1068 0
-1937 -1015 0
-1937 -898 1241 0
-1937 -898 -965 0
-1937 -898 -966 0
-1937 -898 -1072 0
-1937 -898 -1073 0
-1937 -1021 0
-1937 -905 1247 0
-1937 -905 -972 0
-1937 -905 -973 0
-1937 -905 -1077 0
-1937 -905 -1078 0
-1937 -1027 0
-1937 1224 0
-1938 1056 0
-1938 886 887 0
-1938 -891 1235 0
-1938 -891 -959 0
-1938 -891 -960 0
-1938 -891 -1067 0
-1938 -891 -1068 0
-1938 -891 -1069 0
-1938 -1016 0
-1938 -898 1241 0
-1938 -898 -966 0
-1938 -898 -967 0
-1938 -898 -1072 0
-1938 -898 -1073 0
-1938 -898 -1074 0
-1938 -1022 0
-1938 -905 1247 0
-1938 -905 -973 0
-1938 -905 -974 0
-1938 -905 -1077 0
-1938 -905 -1078 0
-1938 -905 -1079 0
-1938 -1028 0
-1938 1225 0
-1939 1056 0
-1939 887 888 0
-1939 -891 1235 0
-1939 -891 -960 0
-1939 -891 -961 0
-1939 -891 -1067 0
-1939 -891 -1068 0
-1939 -891 -1069 0
-1939 -891 -1070 0
-1939 -1017 0
-1939 -898 1241 0
-1939 -898 -967 0
-1939 -898 -968 0
-1939 -898 -1072 0
-1939 -898 -1073 0
-1939 -898 -1074 0
-1939 -898 -1075 0
-1939 -1023 0
-1939 -905 1247 0
-1939 -905 -974 0
-1939 -905 -975 0
-1939 -905 -1077 0
-1939 -905 -1078 0
-1939 -905 -1079 0
-1939 -905 -1080 0
-1939 -1029 0
-1939 1226 0
-1940 1056 0
-1940 888 889 0
-1940 -891 1235 0
-1940 -891 -961 0
-1940 -891 -962 0
-1940 -891 -1068 0
-1940 -891 -1069 0
-1940 -891 -1070 0
-1940 -1018 0
-1940 -898 1241 0
-1940 -898 -968 0
-1940 -898 -969 0
-1940 -898 -1073 0
-1940 -898 -1074 0
-1940 -898 -1075 0
-1940 -1024 0
-1940 -905 1247 0
-1940 -905 -975 0
-1940 -905 -976 0
-1940 -905 -1078 0
-1940 -905 -1079 0
-1940 -905 -1080 0
-1940 -1030 0
-1940 1227 0
-1941 1056 0
-1941 889 890 0
-1941 -891 1235 0
-1941 -891 -962 0
-1941 -891 -963 0
-1941 -891 -1069 0
-1941 -891 -1070 0
-1941 -1019 0
-1941 -898 1241 0
-1941 -898 -969 0
-1941 -898 -970 0
-1941 -898 -1074 0
-1941 -898 -1075 0
-1941 -1025 0
-1941 -905 1247 0
-1941 -905 -976 0
-1941 -905 -977 0
-1941 -905 -1079 0
-1941 -905 -1080 0
-1941 -1031 0
-1941 1228 0
-1942 1056 0
-1942 944 945 0
-1942 -950 1235 0
-1942 -950 -899 0
-1942 -950 -900 0
-1942 -950 -1067 0
-1942 -950 -1068 0
-1942 -1015 0
-1942 -957 1241 0
-1942 -957 -906 0
-1942 -957 -907 0
-1942 -957 -1072 0
-1942 -957 -1073 0
-1942 -1021 0
-1942 -964 1247 0
-1942 -964 -913 0
-1942 -964 -914 0
-1942 -964 -1077 0
-1942 -964 -1078 0
-1942 -1027 0
-1942 1224 0
-1943 1056 0
-1943 945 946 0
-1943 -950 1235 0
-1943 -950 -900 0
-1943 -950 -901 0
-1943 -950 -1067 0
-1943 -950 -1068 0
-1943 -950 -1069 0
-1943 -1016 0
-1943 -957 1241 0
-1943 -957 -907 0
-1943 -957 -908 0
-1943 -957 -1072 0
-1943 -957 -1073 0
-1943 -957 -1074 0
-1943 -1022 0
-1943 -964 1247 0
-1943 -964 -914 0
-1943 -964 -915 0
-1943 -964 -1077 0
-1943 -964 -1078 0
-1943 -964 -1079 0
-1943 -1028 0
-1943 1225 0
-1944 1056 0
-1944 946 947 0
-1944 -950 1235 0
-1944 -950 -901 0
-1944 -950 -902 0
-1944 -950 -1067 0
-1944 -950 -1068 0
-1944 -950 -1069 0
-1944 -950 -1070 0
-1944 -1017 0
-1944 -957 1241 0
-1944 -957 -908 0
-1944 -957 -909 0
-1944 -957 -1072 0
-1944 -957 -1073 0
-1944 -957 -1074 0
-1944 -957 -1075 0
-1944 -1023 0
-1944 -964 1247 0
-1944 -964 -915 0
-1944 -964 -916 0
-1944 -964 -1077 0
-1944 -964 -1078 0
-1944 -964 -1079 0
-1944 -964 -1080 0
-1944 -1029 0
-1944 1226 0
-1945 1056 0
-1945 947 948 0
-1945 -950 1235 0
-1945 -950 -902 0
-1945 -950 -903 0
-1945 -950 -1068 0
-1945 -950 -1069 0
-1945 -950 -1070 0
-1945 -1018 0
-1945 -957 1241 0
-1945 -957 -909 0
-1945 -957 -910 0
-1945 -957 -1073 0
-1945 -957 -1074 0
-1945 -957 -1075 0
-1945 -1024 0
-1945 -964 1247 0
-1945 -964 -916 0
-1945 -964 -917 0
-1945 -964 -1078 0
-1945 -964 -1079 0
-1945 -964 -1080 0
-1945 -1030 0
-1945 1227 0
-1946 1056 0
-1946 948 949 0
-1946 -950 1235 0
-1946 -950 -903 0
-1946 -950 -904 0
-1946 -950 -1069 0
-1946 -950 -1070 0
-1946 -1019 0
-1946 -957 1241 0
-1946 -957 -910 0
-1946 -957 -911 0
-1946 -957 -1074 0
-1946 -957 -1075 0
-1946 -1025 0
-1946 -964 1247 0
-1946 -964 -917 0
-1946 -964 -918 0
-1946 -964 -1079 0
-1946 -964 -1080 0
-1946 -1031 0
-1946 1228 0
-1947 1056 0
-1947 1057 1058 0
-1947 -1061 1235 0
-1947 -1061 -899 0
-1947 -1061 -900 0
-1947 -1061 -958 0
-1947 -1061 -959 0
-1947 -1015 0
-1947 -1066 1241 0
-1947 -1066 -906 0
-1947 -1066 -907 0
-1947 -1066 -965 0
-1947 -1066 -966 0
-1947 -1021 0
-1947 -1071 1247 0
-1947 -1071 -913 0
-1947 -1071 -914 0
-1947 -1071 -972 0
-1947 -1071 -973 0
-1947 -1027 0
-1947 1224 0
-1948 1056 0
-1948 1057 1058 1059 0
-1948 -1061 1235 0
-1948 -1061 -900 0
-1948 -1061 -901 0
-1948 -1061 -959 0
-1948 -1061 -960 0
-1948 -1016 0
-1948 -1066 1241 0
-1948 -1066 -907 0
-1948 -1066 -908 0
-1948 -1066 -966 0
-1948 -1066 -967 0
-1948 -1022 0
-1948 -1071 1247 0
-1948 -1071 -914 0
-1948 -1071 -915 0
-1948 -1071 -973 0
-1948 -1071 -974 0
-1948 -1028 0
-1948 1225 0
-1949 1056 0
-1949 1057 1058 1059 1060 0
-1949 -1061 1235 0
-1949 -1061 -901 0
-1949 -1061 -902 0
-1949 -1061 -960 0
-1949 -1061 -961 0
-1949 -1017 0
-1949 -1066 1241 0
-1949 -1066 -908 0
-1949 -1066 -909 0
-1949 -1066 -967 0
-1949 -1066 -968 0
-1949 -1023 0
-1949 -1071 1247 0
-1949 -1071 -915 0
-1949 -1071 -916 0
-1949 -1071 -974 0
-1949 -1071 -975 0
-1949 -1029 0
-1949 1226 0
-1950 1056 0
-1950 1058 1059 1060 0
-1950 -1061 1235 0
-1950 -1061 -902 0
-1950 -1061 -903 0
-1950 -1061 -961 0
-1950 -1061 -962 0
-1950 -1018 0
-1950 -1066 1241 0
-1950 -1066 -909 0
-1950 -1066 -910 0
-1950 -1066 -968 0
-1950 -1066 -969 0
-1950 -1024 0
-1950 -1071 1247 0
-1950 -1071 -916 0
-1950 -1071 -917 0
-1950 -1071 -975 0
-1950 -1071 -976 0
-1950 -1030 0
-1950 1227 0
-1951 1056 0
-1951 1059 1060 0
-1951 -1061 1235 0
-1951 -1061 -903 0
-1951 -1061 -904 0
-1951 -1061 -962 0
-1951 -1061 -963 0
-1951 -1019 0
-1951 -1066 1241 0
-1951 -1066 -910 0
-1951 -1066 -911 0
-1951 -1066 -969 0
-1951 -1066 -970 0
-1951 -1025 0
-1951 -1071 1247 0
-1951 -1071 -917 0
-1951 -1071 -918 0
-1951 -1071 -976 0
-1951 -1071 -977 0
-1951 -1031 0
-1951 1228 0
-1952 1105 0
-1952 -1062 0
-1952 -892 0
-1952 -893 0
-1952 -894 0
-1952 -951 0
-1952 -952 0
-1952 -953 0
-1952 -1009 0
-1952 -1010 0
-1952 -1011 0
-1952 1278 0
-1952 1282 0
-1953 1105 0
-1953 -1063 0
-1953 -893 0
-1953 -894 0
-1953 -895 0
-1953 -952 0
-1953 -953 0
-1953 -954 0
-1953 -1009 0
-1953 -1010 0
-1953 -1011 0
-1953 -1012 0
-1953 1279 0
-1953 1282 0
-1954 1105 0
-1954 -1064 0
-1954 -894 0
-1954 -895 0
-1954 -896 0
-1954 -953 0
-1954 -954 0
-1954 -955 0
-1954 -1010 0
-1954 -1011 0
-1954 -1012 0
-1954 -1013 0
-1954 1280 0
-1954 1282 0
-1955 1105 0
-1955 -1065 0
-1955 -895 0
-1955 -896 0
-1955 -897 0
-1955 -954 0
-1955 -955 0
-1955 -956 0
-1955 -1011 0
-1955 -1012 0
-1955 -1013 0
-1955 1281 0
-1955 1282 0
-1956 1105 0
-1956 885 886 887 0
-1956 -891 1287 0
-1956 -891 -958 0
-1956 -891 -959 0
-1956 -891 -960 0
-1956 -891 -1015 0
-1956 -891 -1016 0
-1956 -891 -1017 0
-1956 -1067 0
-1956 -898 1292 0
-1956 -898 -965 0
-1956 -898 -966 0
-1956 -898 -967 0
-1956 -898 -1021 0
-1956 -898 -1022 0
-1956 -898 -1023 0
-1956 -1072 0
-1956 -905 1297 0
-1956 -905 -972 0
-1956 -905 -973 0
-1956 -905 -974 0
-1956 -905 -1027 0
-1956 -905 -1028 0
-1956 -905 -1029 0
-1956 -1077 0
-1956 1278 0
-1957 1105 0
-1957 886 887 888 0
-1957 -891 1287 0
-1957 -891 -959 0
-1957 -891 -960 0
-1957 -891 -961 0
-1957 -891 -1015 0
-1957 -891 -1016 0
-1957 -891 -1017 0
-1957 -891 -1018 0
-1957 -1068 0
-1957 -898 1292 0
-1957 -898 -966 0
-1957 -898 -967 0
-1957 -898 -968 0
-1957 -898 -1021 0
-1957 -898 -1022 0
-1957 -898 -1023 0
-1957 -898 -1024 0
-1957 -1073 0
-1957 -905 1297 0
-1957 -905 -973 0
-1957 -905 -974 0
-1957 -905 -975 0
-1957 -905 -1027 0
-1957 -905 -1028 0
-1957 -905 -1029 0
-1957 -905 -1030 0
-1957 -1078 0
-1957 1279 0
-1958 1105 0
-1958 887 888 889 0
-1958 -891 1287 0
-1958 -891 -960 0
-1958 -891 -961 0
-1958 -891 -962 0
-1958 -891 -1016 0
-1958 -891 -1017 0
-1958 -891 -1018 0
-1958 -891 -1019 0
-1958 -1069 0
-1958 -898 1292 0
-1958 -898 -967 0
-1958 -898 -968 0
-1958 -898 -969 0
-1958 -898 -1022 0
-1958 -898 -1023 0
-1958 -898 -1024 0
-1958 -898 -1025 0
-1958 -1074 0
-1958 -905 1297 0
-1958 -905 -974 0
-1958 -905 -975 0
-1958 -905 -976 0
-1958 -905 -1028 0
-1958 -905 -1029 0
-1958 -905 -1030 0
-1958 -905 -1031 0
-1958 -1079 0
-1958 1280 0
-1959 1105 0
-1959 888 889 890 0
-1959 -891 1287 0
-1959 -891 -961 0
-1959 -891 -962 0
-1959 -891 -963 0
-1959 -891 -1017 0
-1959 -891 -1018 0
-1959 -891 -1019 0
-1959 -1070 0
-1959 -898 1292 0
-1959 -898 -968 0
-1959 -898 -969 0
-1959 -898 -970 0
-1959 -898 -1023 0
-1959 -898 -1024 0
-1959 -898 -1025 0
-1959 -1075 0
-1959 -905 1297 0
-1959 -905 -975 0
-1959 -905 -976 0
-1959 -905 -977 0
-1959 -905 -1029 0
-1959 -905 -1030 0
-1959 -905 -1031 0
-1959 -1080 0
-1959 1281 0
-1960 1105 0
-1960 944 945 946 0
-1960 -950 1287 0
-1960 -950 -899 0
-1960 -950 -900 0
-1960 -950 -901 0
-1960 -950 -1015 0
-1960 -950 -1016 0
-1960 -950 -1017 0
-1960 -1067 0
-1960 -957 1292 0
-1960 -957 -906 0
-1960 -957 -907 0
-1960 -957 -908 0
-1960 -957 -1021 0
-1960 -957 -1022 0
-1960 -957 -1023 0
-1960 -1072 0
-1960 -964 1297 0
-1960 -964 -913 0
-1960 -964 -914 0
-1960 -964 -915 0
-1960 -964 -1027 0
-1960 -964 -1028 0
-1960 -964 -1029 0
-1960 -1077 0
-1960 1278 0
-1961 1105 0
-1961 945 946 947 0
-1961 -950 1287 0
-1961 -950 -900 0
-1961 -950 -901 0
-1961 -950 -902 0
-1961 -950 -1015 0
-1961 -950 -1016 0
-1961 -950 -1017 0
-1961 -950 -1018 0
-1961 -1068 0
-1961 -957 1292 0
-1961 -957 -907 0
-1961 -957 -908 0
-1961 -957 -909 0
-1961 -957 -1021 0
-1961 -957 -1022 0
-1961 -957 -1023 0
-1961 -957 -1024 0
-1961 -1073 0
-1961 -964 1297 0
-1961 -964 -914 0
-1961 -964 -915 0
-1961 -964 -916 0
-1961 -964 -1027 0
-1961 -964 -1028 0
-1961 -964 -1029 0
-1961 -964 -1030 0
-1961 -1078 0
-1961 1279 0
-1962 1105 0
-1962 946 947 948 0
-1962 -950 1287 0
-1962 -950 -901 0
-1962 -950 -902 0
-1962 -950 -903 0
-1962 -950 -1016 0
-1962 -950 -1017 0
-1962 -950 -1018 0
-1962 -950 -1019 0
-1962 -1069 0
-1962 -957 1292 0
-1962 -957 -908 0
-1962 -957 -909 0
-1962 -957 -910 0
-1962 -957 -1022 0
-1962 -957 -1023 0
-1962 -957 -1024 0
-1962 -957 -1025 0
-1962 -1074 0
-1962 -964 1297 0
-1962 -964 -915 0
-1962 -964 -916 0
-1962 -964 -917 0
-1962 -964 -1028 0
-1962 -964 -1029 0
-1962 -964 -1030 0
-1962 -964 -1031 0
-1962 -1079 0
-1962 1280 0
-1963 1105 0
-1963 947 948 949 0
-1963 -950 1287 0
-1963 -950 -902 0
-1963 -950 -903 0
-1963 -950 -904 0
-1963 -950 -1017 0
-1963 -950 -1018 0
-1963 -950 -1019 0
-1963 -1070 0
-1963 -957 1292 0
-1963 -957 -909 0
-1963 -957 -910 0
-1963 -957 -911 0
-1963 -957 -1023 0
-1963 -957 -1024 0
-1963 -957 -1025 0
-1963 -1075 0
-1963 -964 1297 0
-1963 -964 -916 0
-1963 -964 -917 0
-1963 -964 -918 0
-1963 -964 -1029 0
-1963 -964 -1030 0
-1963 -964 -1031 0
-1963 -1080 0
-1963 1281 0
-1964 1105 0
-1964 1003 1004 1005 0
-1964 -1008 1287 0
-1964 -1008 -899 0
-1964 -1008 -900 0
-1964 -1008 -901 0
-1964 -1008 -958 0
-1964 -1008 -959 0
-1964 -1008 -960 0
-1964 -1067 0
-1964 -1014 1292 0
-1964 -1014 -906 0
-1964 -1014 -907 0
-1964 -1014 -908 0
-1964 -1014 -965 0
-1964 -1014 -966 0
-1964 -1014 -967 0
-1964 -1072 0
-1964 -1020 1297 0
-1964 -1020 -913 0
-1964 -1020 -914 0
-1964 -1020 -915 0
-1964 -1020 -972 0
-1964 -1020 -973 0
-1964 -1020 -974 0
-1964 -1077 0
-1964 1278 0
-1965 1105 0
-1965 1003 1004 1005 1006 0
-1965 -1008 1287 0
-1965 -1008 -900 0
-1965 -1008 -901 0
-1965 -1008 -902 0
-1965 -1008 -959 0
-1965 -1008 -960 0
-1965 -1008 -961 0
-1965 -1068 0
-1965 -1014 1292 0
-1965 -1014 -907 0
-1965 -1014 -908 0
-1965 -1014 -909 0
-1965 -1014 -966 0
-1965 -1014 -967 0
-1965 -1014 -968 0
-1965 -1073 0
-1965 -1020 1297 0
-1965 -1020 -914 0
-1965 -1020 -915 0
-1965 -1020 -916 0
-1965 -1020 -973 0
-1965 -1020 -974 0
-1965 -1020 -975 0
-1965 -1078 0
-1965 1279 0
-1966 1105 0
-1966 1004 1005 1006 1007 0
-1966 -1008 1287 0
-1966 -1008 -901 0
-1966 -1008 -902 0
-1966 -1008 -903 0
-1966 -1008 -960 0
-1966 -1008 -961 0
-1966 -1008 -962 0
-1966 -1069 0
-1966 -1014 1292 0
-1966 -1014 -908 0
-1966 -1014 -909 0
-1966 -1014 -910 0
-1966 -1014 -967 0
-1966 -1014 -968 0
-1966 -1014 -969 0
-1966 -1074 0
-1966 -1020 1297 0
-1966 -1020 -915 0
-1966 -1020 -916 0
-1966 -1020 -917 0
-1966 -1020 -974 0
-1966 -1020 -975 0
-1966 -1020 -976 0
-1966 -1079 0
-1966 1280 0
-1967 1105 0
-1967 1005 1006 1007 0
-1967 -1008 1287 0
-1967 -1008 -902 0
-1967 -1008 -903 0
-1967 -1008 -904 0
-1967 -1008 -961 0
-1967 -1008 -962 0
-1967 -1008 -963 0
-1967 -1070 0
-1967 -1014 1292 0
-1967 -1014 -909 0
-1967 -1014 -910 0
-1967 -1014 -911 0
-1967 -1014 -968 0
-1967 -1014 -969 0
-1967 -1014 -970 0
-1967 -1075 0
-1967 -1020 1297 0
-1967 -1020 -916 0
-1967 -1020 -917 0
-1967 -1020 -918 0
-1967 -1020 -975 0
-1967 -1020 -976 0
-1967 -1020 -977 0
-1967 -1080 0
-1967 1281 0
-1968 1164 0
-1968 -1113 0
-1968 -1172 0
-1968 -1230 0
-1968 -1283 0
-1968 1327 0
-1968 1333 0
-1969 1164 0
-1969 -1114 0
-1969 -1173 0
-1969 -1230 0
-1969 -1231 0
-1969 -1283 0
-1969 -1284 0
-1969 1328 0
-1969 1333 0
-1970 1164 0
-1970 -1115 0
-1970 -1174 0
-1970 -1231 0
-1970 -1232 0
-1970 -1283 0
-1970 -1284 0
-1970 -1285 0
-1970 1329 0
-1970 1333 0
-1971 1164 0
-1971 -1116 0
-1971 -1175 0
-1971 -1232 0
-1971 -1233 0
-1971 -1284 0
-1971 -1285 0
-1971 -1286 0
-1971 1330 0
-1971 1333 0
-1972 1164 0
-1972 -1117 0
-1972 -1176 0
-1972 -1233 0
-1972 -1234 0
-1972 -1285 0
-1972 -1286 0
-1972 1331 0
-1972 1333 0
-1973 1164 0
-1973 -1118 0
-1973 -1177 0
-1973 -1234 0
-1973 -1286 0
-1973 1332 0
-1973 1333 0
-1974 1164 0
-1974 1165 0
-1974 -1171 1340 0
-1974 -1171 -1236 0
-1974 -1171 -1288 0
-1974 -1120 0
-1974 -1178 1347 0
-1974 -1178 -1242 0
-1974 -1178 -1293 0
-1974 -1127 0
-1974 -1185 1354 0
-1974 -1185 -1248 0
-1974 -1185 -1298 0
-1974 -1134 0
-1974 1327 0
-1975 1164 0
-1975 1166 0
-1975 -1171 1340 0
-1975 -1171 -1236 0
-1975 -1171 -1237 0
-1975 -1171 -1288 0
-1975 -1171 -1289 0
-1975 -1121 0
-1975 -1178 1347 0
-1975 -1178 -1242 0
-1975 -1178 -1243 0
-1975 -1178 -1293 0
-1975 -1178 -1294 0
-1975 -1128 0
-1975 -1185 1354 0
-1975 -1185 -1248 0
-1975 -1185 -1249 0
-1975 -1185 -1298 0
-1975 -1185 -1299 0
-1975 -1135 0
-1975 1328 0
-1976 1164 0
-1976 1167 0
-1976 -1171 1340 0
-1976 -1171 -1237 0
-1976 -1171 -1238 0
-1976 -1171 -1288 0
-1976 -1171 -1289 0
-1976 -1171 -1290 0
-1976 -1122 0
-1976 -1178 1347 0
-1976 -1178 -1243 0
-1976 -1178 -1244 0
-1976 -1178 -1293 0
-1976 -1178 -1294 0
-1976 -1178 -1295 0
-1976 -1129 0
-1976 -1185 1354 0
-1976 -1185 -1249 0
-1976 -1185 -1250 0
-1976 -1185 -1298 0
-1976 -1185 -1299 0
-1976 -1185 -1300 0
-1976 -1136 0
-1976 1329 0
-1977 1164 0
-1977 1168 0
-1977 -1171 1340 0
-1977 -1171 -1238 0
-1977 -1171 -1239 0
-1977 -1171 -1289 0
-1977 -1171 -1290 0
-1977 -1171 -1291 0
-1977 -1123 0
-1977 -1178 1347 0
-1977 -1178 -1244 0
-1977 -1178 -1245 0
-1977 -1178 -1294 0
-1977 -1178 -1295 0
-1977 -1178 -1296 0
-1977 -1130 0
-1977 -1185 1354 0
-1977 -1185 -1250 0
-1977 -1185 -1251 0
-1977 -1185 -1299 0
-1977 -1185 -1300 0
-1977 -1185 -1301 0
-1977 -1137 0
-1977 1330 0
-1978 1164 0
-1978 1169 0
-1978 -1171 1340 0
-1978 -1171 -1239 0
-1978 -1171 -1240 0
-1978 -1171 -1290 0
-1978 -1171 -1291 0
-1978 -1124 0
-1978 -1178 1347 0
-1978 -1178 -1245 0
-1978 -1178 -1246 0
-1978 -1178 -1295 0
-1978 -1178 -1296 0
-1978 -1131 0
-1978 -1185 1354 0
-1978 -1185 -1251 0
-1978 -1185 -1252 0
-1978 -1185 -1300 0
-1978 -1185 -1301 0
-1978 -1138 0
-1978 1331 0
-1979 1164 0
-1979 1170 0
-1979 -1171 1340 0
-1979 -1171 -1240 0
-1979 -1171 -1291 0
-1979 -1125 0
-1979 -1178 1347 0
-1979 -1178 -1246 0
-1979 -1178 -1296 0
-1979 -1132 0
-1979 -1185 1354 0
-1979 -1185 -1252 0
-1979 -1185 -1301 0
-1979 -1139 0
-1979 1332 0
-1980 1164 0
-1980 1224 0
-1980 -1229 1340 0
-1980 -1229 -1179 0
-1980 -1229 -1288 0
-1980 -1120 0
-1980 -1235 1347 0
-1980 -1235 -1186 0
-1980 -1235 -1293 0
-1980 -1127 0
-1980 -1241 1354 0
-1980 -1241 -1193 0
-1980 -1241 -1298 0
-1980 -1134 0
-1980 1327 0
-1981 1164 0
-1981 1224 1225 0
-1981 -1229 1340 0
-1981 -1229 -1180 0
-1981 -1229 -1288 0
-1981 -1229 -1289 0
-1981 -1121 0
-1981 -1235 1347 0
-1981 -1235 -1187 0
-1981 -1235 -1293 0
-1981 -1235 -1294 0
-1981 -1128 0
-1981 -1241 1354 0
-1981 -1241 -1194 0
-1981 -1241 -1298 0
-1981 -1241 -1299 0
-1981 -1135 0
-1981 1328 0
-1982 1164 0
-1982 1225 1226 0
-1982 -1229 1340 0
-1982 -1229 -1181 0
-1982 -1229 -1288 0
-1982 -1229 -1289 0
-1982 -1229 -1290 0
-1982 -1122 0
-1982 -1235 1347 0
-1982 -1235 -1188 0
-1982 -1235 -1293 0
-1982 -1235 -1294 0
-1982 -1235 -1295 0
-1982 -1129 0
-1982 -1241 1354 0
-1982 -1241 -1195 0
-1982 -1241 -1298 0
-1982 -1241 -1299 0
-1982 -1241 -1300 0
-1982 -1136 0
-1982 1329 0
-1983 1164 0
-1983 1226 1227 0
-1983 -1229 1340 0
-1983 -1229 -1182 0
-1983 -1229 -1289 0
-1983 -1229 -1290 0
-1983 -1229 -1291 0
-1983 -1123 0
-1983 -1235 1347 0
-1983 -1235 -1189 0
-1983 -1235 -1294 0
-1983 -1235 -1295 0
-1983 -1235 -1296 0
-1983 -1130 0
-1983 -1241 1354 0
-1983 -1241 -1196 0
-1983 -1241 -1299 0
-1983 -1241 -1300 0
-1983 -1241 -1301 0
-1983 -1137 0
-1983 1330 0
-1984 1164 0
-1984 1227 1228 0
-1984 -1229 1340 0
-1984 -1229 -1183 0
-1984 -1229 -1290 0
-1984 -1229 -1291 0
-1984 -1124 0
-1984 -1235 1347 0
-1984 -1235 -1190 0
-1984 -1235 -1295 0
-1984 -1235 -1296 0
-1984 -1131 0
-1984 -1241 1354 0
-1984 -1241 -1197 0
-1984 -1241 -1300 0
-1984 -1241 -1301 0
-1984 -1138 0
-1984 1331 0
-1985 1164 0
-1985 1228 0
-1985 -1229 1340 0
-1985 -1229 -1184 0
-1985 -1229 -1291 0
-1985 -1125 0
-1985 -1235 1347 0
-1985 -1235 -1191 0
-1985 -1235 -1296 0
-1985 -1132 0
-1985 -1241 1354 0
-1985 -1241 -1198 0
-1985 -1241 -1301 0
-1985 -1139 0
-1985 1332 0
-1986 1164 0
-1986 1278 0
-1986 -1282 1340 0
-1986 -1282 -1179 0
-1986 -1282 -1236 0
-1986 -1120 0
-1986 -1287 1347 0
-1986 -1287 -1186 0
-1986 -1287 -1242 0
-1986 -1127 0
-1986 -1292 1354 0
-1986 -1292 -1193 0
-1986 -1292 -1248 0
-1986 -1134 0
-1986 1327 0
-1987 1164 0
-1987 1278 1279 0
-1987 -1282 1340 0
-1987 -1282 -1180 0
-1987 -1282 -1236 0
-1987 -1282 -1237 0
-1987 -1121 0
-1987 -1287 1347 0
-1987 -1287 -1187 0
-1987 -1287 -1242 0
-1987 -1287 -1243 0
-1987 -1128 0
-1987 -1292 1354 0
-1987 -1292 -1194 0
-1987 -1292 -1248 0
-1987 -1292 -1249 0
-1987 -1135 0
-1987 1328 0
-1988 1164 0
-1988 1278 1279 1280 0
-1988 -1282 1340 0
-1988 -1282 -1181 0
-1988 -1282 -1237 0
-1988 -1282 -1238 0
-1988 -1122 0
-1988 -1287 1347 0
-1988 -1287 -1188 0
-1988 -1287 -1243 0
-1988 -1287 -1244 0
-1988 -1129 0
-1988 -1292 1354 0
-1988 -1292 -1195 0
-1988 -1292 -1249 0
-1988 -1292 -1250 0
-1988 -1136 0
-1988 1329 0
-1989 1164 0
-1989 1279 1280 1281 0
-1989 -1282 1340 0
-1989 -1282 -1182 0
-1989 -1282 -1238 0
-1989 -1282 -1239 0
-1989 -1123 0
-1989 -1287 1347 0
-1989 -1287 -1189 0
-1989 -1287 -1244 0
-1989 -1287 -1245 0
-1989 -1130 0
-1989 -1292 1354 0
-1989 -1292 -1196 0
-1989 -1292 -1250 0
-1989 -1292 -1251 0
-1989 -1137 0
-1989 1330 0
-1990 1164 0
-1990 1280 1281 0
-1990 -1282 1340 0
-1990 -1282 -1183 0
-1990 -1282 -1239 0
-1990 -1282 -1240 0
-1990 -1124 0
-1990 -1287 1347 0
-1990 -1287 -1190 0
-1990 -1287 -1245 0
-1990 -1287 -1246 0
-1990 -1131 0
-1990 -1292 1354 0
-1990 -1292 -1197 0
-1990 -1292 -1251 0
-1990 -1292 -1252 0
-1990 -1138 0
-1990 1331 0
-1991 1164 0
-1991 1281 0
-1991 -1282 1340 0
-1991 -1282 -1184 0
-1991 -1282 -1240 0
-1991 -1125 0
-1991 -1287 1347 0
-1991 -1287 -1191 0
-1991 -1287 -1246 0
-1991 -1132 0
-1991 -1292 1354 0
-1991 -1292 -1198 0
-1991 -1292 -1252 0
-1991 -1139 0
-1991 1332 0
-1992 1223 0
-1992 -1172 0
-1992 -1113 0
-1992 -1230 0
-1992 -1283 0
-1992 1386 0
-1992 1392 0
-1993 1223 0
-1993 -1173 0
-1993 -1114 0
-1993 -1230 0
-1993 -1231 0
-1993 -1283 0
-1993 -1284 0
-1993 1387 0
-1993 1392 0
-1994 1223 0
-1994 -1174 0
-1994 -1115 0
-1994 -1231 0
-1994 -1232 0
-1994 -1283 0
-1994 -1284 0
-1994 -1285 0
-1994 1388 0
-1994 1392 0
-1995 1223 0
-1995 -1175 0
-1995 -1116 0
-1995 -1232 0
-1995 -1233 0
-1995 -1284 0
-1995 -1285 0
-1995 -1286 0
-1995 1389 0
-1995 1392 0
-1996 1223 0
-1996 -1176 0
-1996 -1117 0
-1996 -1233 0
-1996 -1234 0
-1996 -1285 0
-1996 -1286 0
-1996 1390 0
-1996 1392 0
-1997 1223 0
-1997 -1177 0
-1997 -1118 0
-1997 -1234 0
-1997 -1286 0
-1997 1391 0
-1997 1392 0
-1998 1223 0
-1998 1106 0
-1998 -1112 1399 0
-1998 -1112 -1236 0
-1998 -1112 -1288 0
-1998 -1179 0
-1998 -1119 1406 0
-1998 -1119 -1242 0
-1998 -1119 -1293 0
-1998 -1186 0
-1998 -1126 1413 0
-1998 -1126 -1248 0
-1998 -1126 -1298 0
-1998 -1193 0
-1998 1386 0
-1999 1223 0
-1999 1107 0
-1999 -1112 1399 0
-1999 -1112 -1236 0
-1999 -1112 -1237 0
-1999 -1112 -1288 0
-1999 -1112 -1289 0
-1999 -1180 0
-1999 -1119 1406 0
-1999 -1119 -1242 0
-1999 -1119 -1243 0
-1999 -1119 -1293 0
-1999 -1119 -1294 0
-1999 -1187 0
-1999 -1126 1413 0
-1999 -1126 -1248 0
-1999 -1126 -1249 0
-1999 -1126 -1298 0
-1999 -1126 -1299 0
-1999 -1194 0
-1999 1387 0
-2000 1223 0
-2000 1108 0
-2000 -1112 1399 0
-2000 -1112 -1237 0
-2000 -1112 -1238 0
-2000 -1112 -1288 0
-2000 -1112 -1289 0
-2000 -1112 -1290 0
-2000 -1181 0
-2000 -1119 1406 0
-2000 -1119 -1243 0
-2000 -1119 -1244 0
-2000 -1119 -1293 0
-2000 -1119 -1294 0
-2000 -1119 -1295 0
-2000 -1188 0
-2000 -1126 1413 0
-2000 -1126 -1249 0
-2000 -1126 -1250 0
-2000 -1126 -1298 0
-2000 -1126 -1299 0
-2000 -1126 -1300 0
-2000 -1195 0
-2000 1388 0
-2001 1223 0
-2001 1109 0
-2001 -1112 1399 0
-2001 -1112 -1238 0
-2001 -1112 -1239 0
-2001 -1112 -1289 0
-2001 -1112 -1290 0
-2001 -1112 -1291 0
-2001 -1182 0
-2001 -1119 1406 0
-2001 -1119 -1244 0
-2001 -1119 -1245 0
-2001 -1119 -1294 0
-2001 -1119 -1295 0
-2001 -1119 -1296 0
-2001 -1189 0
-2001 -1126 1413 0
-2001 -1126 -1250 0
-2001 -1126 -1251 0
-2001 -1126 -1299 0
-2001 -1126 -1300 0
-2001 -1126 -1301 0
-2001 -1196 0
-2001 1389 0
-2002 1223 0
-2002 1110 0
-2002 -1112 1399 0
-2002 -1112 -1239 0
-2002 -1112 -1240 0
-2002 -1112 -1290 0
-2002 -1112 -1291 0
-2002 -1183 0
-2002 -1119 1406 0
-2002 -1119 -1245 0
-2002 -1119 -1246 0
-2002 -1119 -1295 0
-2002 -1119 -1296 0
-2002 -1190 0
-2002 -1126 1413 0
-2002 -1126 -1251 0
-2002 -1126 -1252 0
-2002 -1126 -1300 0
-2002 -1126 -1301 0
-2002 -1197 0
-2002 1390 0
-2003 1223 0
-2003 1111 0
-2003 -1112 1399 0
-2003 -1112 -1240 0
-2003 -1112 -1291 0
-2003 -1184 0
-2003 -1119 1406 0
-2003 -1119 -1246 0
-2003 -1119 -1296 0
-2003 -1191 0
-2003 -1126 1413 0
-2003 -1126 -1252 0
-2003 -1126 -1301 0
-2003 -1198 0
-2003 1391 0
-2004 1223 0
-2004 1224 0
-2004 -1229 1399 0
-2004 -1229 -1120 0
-2004 -1229 -1288 0
-2004 -1179 0
-2004 -1235 1406 0
-2004 -1235 -1127 0
-2004 -1235 -1293 0
-2004 -1186 0
-2004 -1241 1413 0
-2004 -1241 -1134 0
-2004 -1241 -1298 0
-2004 -1193 0
-2004 1386 0
-2005 1223 0
-2005 1224 1225 0
-2005 -1229 1399 0
-2005 -1229 -1121 0
-2005 -1229 -1288 0
-2005 -1229 -1289 0
-2005 -1180 0
-2005 -1235 1406 0
-2005 -1235 -1128 0
-2005 -1235 -1293 0
-2005 -1235 -1294 0
-2005 -1187 0
-2005 -1241 1413 0
-2005 -1241 -1135 0
-2005 -1241 -1298 0
-2005 -1241 -1299 0
-2005 -1194 0
-2005 1387 0
-2006 1223 0
-2006 1225 1226 0
-2006 -1229 1399 0
-2006 -1229 -1122 0
-2006 -1229 -1288 0
-2006 -1229 -1289 0
-2006 -1229 -1290 0
-2006 -1181 0
-2006 -1235 1406 0
-2006 -1235 -1129 0
-2006 -1235 -1293 0
-2006 -1235 -1294 0
-2006 -1235 -1295 0
-2006 -1188 0
-2006 -1241 1413 0
-2006 -1241 -1136 0
-2006 -1241 -1298 0
-2006 -1241 -1299 0
-2006 -1241 -1300 0
-2006 -1195 0
-2006 1388 0
-2007 1223 0
-2007 1226 1227 0
-2007 -1229 1399 0
-2007 -1229 -1123 0
-2007 -1229 -1289 0
-2007 -1229 -1290 0
-2007 -1229 -1291 0
-2007 -1182 0
-2007 -1235 1406 0
-2007 -1235 -1130 0
-2007 -1235 -1294 0
-2007 -1235 -1295 0
-2007 -1235 -1296 0
-2007 -1189 0
-2007 -1241 1413 0
-2007 -1241 -1137 0
-2007 -1241 -1299 0
-2007 -1241 -1300 0
-2007 -1241 -1301 0
-2007 -1196 0
-2007 1389 0
-2008 1223 0
-2008 1227 1228 0
-2008 -1229 1399 0
-2008 -1229 -1124 0
-2008 -1229 -1290 0
-2008 -1229 -1291 0
-2008 -1183 0
-2008 -1235 1406 0
-2008 -1235 -1131 0
-2008 -1235 -1295 0
-2008 -1235 -1296 0
-2008 -1190 0
-2008 -1241 1413 0
-2008 -1241 -1138 0
-2008 -1241 -1300 0
-2008 -1241 -1301 0
-2008 -1197 0
-2008 1390 0
-2009 1223 0
-2009 1228 0
-2009 -1229 1399 0
-2009 -1229 -1125 0
-2009 -1229 -1291 0
-2009 -1184 0
-2009 -1235 1406 0
-2009 -1235 -1132 0
-2009 -1235 -1296 0
-2009 -1191 0
-2009 -1241 1413 0
-2009 -1241 -1139 0
-2009 -1241 -1301 0
-2009 -1198 0
-2009 1391 0
-2010 1223 0
-2010 1278 0
-2010 -1282 1399 0
-2010 -1282 -1120 0
-2010 -1282 -1236 0
-2010 -1179 0
-2010 -1287 1406 0
-2010 -1287 -1127 0
-2010 -1287 -1242 0
-2010 -1186 0
-2010 -1292 1413 0
-2010 -1292 -1134 0
-2010 -1292 -1248 0
-2010 -1193 0
-2010 1386 0
-2011 1223 0
-2011 1278 1279 0
-2011 -1282 1399 0
-2011 -1282 -1121 0
-2011 -1282 -1236 0
-2011 -1282 -1237 0
-2011 -1180 0
-2011 -1287 1406 0
-2011 -1287 -1128 0
-2011 -1287 -1242 0
-2011 -1287 -1243 0
-2011 -1187 0
-2011 -1292 1413 0
-2011 -1292 -1135 0
-2011 -1292 -1248 0
-2011 -1292 -1249 0
-2011 -1194 0
-2011 1387 0
-2012 1223 0
-2012 1278 1279 1280 0
-2012 -1282 1399 0
-2012 -1282 -1122 0
-2012 -1282 -1237 0
-2012 -1282 -1238 0
-2012 -1181 0
-2012 -1287 1406 0
-2012 -1287 -1129 0
-2012 -1287 -1243 0
-2012 -1287 -1244 0
-2012 -1188 0
-2012 -1292 1413 0
-2012 -1292 -1136 0
-2012 -1292 -1249 0
-2012 -1292 -1250 0
-2012 -1195 0
-2012 1388 0
-2013 1223 0
-2013 1279 1280 1281 0
-2013 -1282 1399 0
-2013 -1282 -1123 0
-2013 -1282 -1238 0
-2013 -1282 -1239 0
-2013 -1182 0
-2013 -1287 1406 0
-2013 -1287 -1130 0
-2013 -1287 -1244 0
-2013 -1287 -1245 0
-2013 -1189 0
-2013 -1292 1413 0
-2013 -1292 -1137 0
-2013 -1292 -1250 0
-2013 -1292 -1251 0
-2013 -1196 0
-2013 1389 0
-2014 1223 0
-2014 1280 1281 0
-2014 -1282 1399 0
-2014 -1282 -1124 0
-2014 -1282 -1239 0
-2014 -1282 -1240 0
-2014 -1183 0
-2014 -1287 1406 0
-2014 -1287 -1131 0
-2014 -1287 -1245 0
-2014 -1287 -1246 0
-2014 -1190 0
-2014 -1292 1413 0
-2014 -1292 -1138 0
-2014 -1292 -1251 0
-2014 -1292 -1252 0
-2014 -1197 0
-2014 1390 0
-2015 1223 0
-2015 1281 0
-2015 -1282 1399 0
-2015 -1282 -1125 0
-2015 -1282 -1240 0
-2015 -1184 0
-2015 -1287 1406 0
-2015 -1287 -1132 0
-2015 -1287 -1246 0
-2015 -1191 0
-2015 -1292 1413 0
-2015 -1292 -1139 0
-2015 -1292 -1252 0
-2015 -1198 0
-2015 1391 0
-2016 1277 0
-2016 -1230 0
-2016 -1113 0
-2016 -1114 0
-2016 -1172 0
-2016 -1173 0
-2016 -1283 0
-2016 -1284 0
-2016 1445 0
-2016 1450 0
-2017 1277 0
-2017 -1231 0
-2017 -1114 0
-2017 -1115 0
-2017 -1173 0
-2017 -1174 0
-2017 -1283 0
-2017 -1284 0
-2017 -1285 0
-2017 1446 0
-2017 1450 0
-2018 1277 0
-2018 -1232 0
-2018 -1115 0
-2018 -1116 0
-2018 -1174 0
-2018 -1175 0
-2018 -1283 0
-2018 -1284 0
-2018 -1285 0
-2018 -1286 0
-2018 1447 0
-2018 1450 0
-2019 1277 0
-2019 -1233 0
-2019 -1116 0
-2019 -1117 0
-2019 -1175 0
-2019 -1176 0
-2019 -1284 0
-2019 -1285 0
-2019 -1286 0
-2019 1448 0
-2019 1450 0
-2020 1277 0
-2020 -1234 0
-2020 -1117 0
-2020 -1118 0
-2020 -1176 0
-2020 -1177 0
-2020 -1285 0
-2020 -1286 0
-2020 1449 0
-2020 1450 0
-2021 1277 0
-2021 1106 1107 0
-2021 -1112 1456 0
-2021 -1112 -1179 0
-2021 -1112 -1180 0
-2021 -1112 -1288 0
-2021 -1112 -1289 0
-2021 -1236 0
-2021 -1119 1462 0
-2021 -1119 -1186 0
-2021 -1119 -1187 0
-2021 -1119 -1293 0
-2021 -1119 -1294 0
-2021 -1242 0
-2021 -1126 1468 0
-2021 -1126 -1193 0
-2021 -1126 -1194 0
-2021 -1126 -1298 0
-2021 -1126 -1299 0
-2021 -1248 0
-2021 1445 0
-2022 1277 0
-2022 1107 1108 0
-2022 -1112 1456 0
-2022 -1112 -1180 0
-2022 -1112 -1181 0
-2022 -1112 -1288 0
-2022 -1112 -1289 0
-2022 -1112 -1290 0
-2022 -1237 0
-2022 -1119 1462 0
-2022 -1119 -1187 0
-2022 -1119 -1188 0
-2022 -1119 -1293 0
-2022 -1119 -1294 0
-2022 -1119 -1295 0
-2022 -1243 0
-2022 -1126 1468 0
-2022 -1126 -1194 0
-2022 -1126 -1195 0
-2022 -1126 -1298 0
-2022 -1126 -1299 0
-2022 -1126 -1300 0
-2022 -1249 0
-2022 1446 0
-2023 1277 0
-2023 1108 1109 0
-2023 -1112 1456 0
-2023 -1112 -1181 0
-2023 -1112 -1182 0
-2023 -1112 -1288 0
-2023 -1112 -1289 0
-2023 -1112 -1290 0
-2023 -1112 -1291 0
-2023 -1238 0
-2023 -1119 1462 0
-2023 -1119 -1188 0
-2023 -1119 -1189 0
-2023 -1119 -1293 0
-2023 -1119 -1294 0
-2023 -1119 -1295 0
-2023 -1119 -1296 0
-2023 -1244 0
-2023 -1126 1468 0
-2023 -1126 -1195 0
-2023 -1126 -1196 0
-2023 -1126 -1298 0
-2023 -1126 -1299 0
-2023 -1126 -1300 0
-2023 -1126 -1301 0
-2023 -1250 0
-2023 1447 0
-2024 1277 0
-2024 1109 1110 0
-2024 -1112 1456 0
-2024 -1112 -1182 0
-2024 -1112 -1183 0
-2024 -1112 -1289 0
-2024 -1112 -1290 0
-2024 -1112 -1291 0
-2024 -1239 0
-2024 -1119 1462 0
-2024 -1119 -1189 0
-2024 -1119 -1190 0
-2024 -1119 -1294 0
-2024 -1119 -1295 0
-2024 -1119 -1296 0
-2024 -1245 0
-2024 -1126 1468 0
-2024 -1126 -1196 0
-2024 -1126 -1197 0
-2024 -1126 -1299 0
-2024 -1126 -1300 0
-2024 -1126 -1301 0
-2024 -1251 0
-2024 1448 0
-2025 1277 0
-2025 1110 1111 0
-2025 -1112 1456 0
-2025 -1112 -1183 0
-2025 -1112 -1184 0
-2025 -1112 -1290 0
-2025 -1112 -1291 0
-2025 -1240 0
-2025 -1119 1462 0
-2025 -1119 -1190 0
-2025 -1119 -1191 0
-2025 -1119 -1295 0
-2025 -1119 -1296 0
-2025 -1246 0
-2025 -1126 1468 0
-2025 -1126 -1197 0
-2025 -1126 -1198 0
-2025 -1126 -1300 0
-2025 -1126 -1301 0
-2025 -1252 0
-2025 1449 0
-2026 1277 0
-2026 1165 1166 0
-2026 -1171 1456 0
-2026 -1171 -1120 0
-2026 -1171 -1121 0
-2026 -1171 -1288 0
-2026 -1171 -1289 0
-2026 -1236 0
-2026 -1178 1462 0
-2026 -1178 -1127 0
-2026 -1178 -1128 0
-2026 -1178 -1293 0
-2026 -1178 -1294 0
-2026 -1242 0
-2026 -1185 1468 0
-2026 -1185 -1134 0
-2026 -1185 -1135 0
-2026 -1185 -1298 0
-2026 -1185 -1299 0
-2026 -1248 0
-2026 1445 0
-2027 1277 0
-2027 1166 1167 0
-2027 -1171 1456 0
-2027 -1171 -1121 0
-2027 -1171 -1122 0
-2027 -1171 -1288 0
-2027 -1171 -1289 0
-2027 -1171 -1290 0
-2027 -1237 0
-2027 -1178 1462 0
-2027 -1178 -1128 0
-2027 -1178 -1129 0
-2027 -1178 -1293 0
-2027 -1178 -1294 0
-2027 -1178 -1295 0
-2027 -1243 0
-2027 -1185 1468 0
-2027 -1185 -1135 0
-2027 -1185 -1136 0
-2027 -1185 -1298 0
-2027 -1185 -1299 0
-2027 -1185 -1300 0
-2027 -1249 0
-2027 1446 0
-2028 1277 0
-2028 1167 1168 0
-2028 -1171 1456 0
-2028 -1171 -1122 0
-2028 -1171 -1123 0
-2028 -1171 -1288 0
-2028 -1171 -1289 0
-2028 -1171 -1290 0
-2028 -1171 -1291 0
-2028 -1238 0
-2028 -1178 1462 0
-2028 -1178 -1129 0
-2028 -1178 -1130 0
-2028 -1178 -1293 0
-2028 -1178 -1294 0
-2028 -1178 -1295 0
-2028 -1178 -1296 0
-2028 -1244 0
-2028 -1185 1468 0
-2028 -1185 -1136 0
-2028 -1185 -1137 0
-2028 -1185 -1298 0
-2028 -1185 -1299 0
-2028 -1185 -1300 0
-2028 -1185 -1301 0
-2028 -1250 0
-2028 1447 0
-2029 1277 0
-2029 1168 1169 0
-2029 -1171 1456 0
-2029 -1171 -1123 0
-2029 -1171 -1124 0
-2029 -1171 -1289 0
-2029 -1171 -1290 0
-2029 -1171 -1291 0
-2029 -1239 0
-2029 -1178 1462 0
-2029 -1178 -1130 0
-2029 -1178 -1131 0
-2029 -1178 -1294 0
-2029 -1178 -1295 0
-2029 -1178 -1296 0
-2029 -1245 0
-2029 -1185 1468 0
-2029 -1185 -1137 0
-2029 -1185 -1138 0
-2029 -1185 -1299 0
-2029 -1185 -1300 0
-2029 -1185 -1301 0
-2029 -1251 0
-2029 1448 0
-2030 1277 0
-2030 1169 1170 0
-2030 -1171 1456 0
-2030 -1171 -1124 0
-2030 -1171 -1125 0
-2030 -1171 -1290 0
-2030 -1171 -1291 0
-2030 -1240 0
-2030 -1178 1462 0
-2030 -1178 -1131 0
-2030 -1178 -1132 0
-2030 -1178 -1295 0
-2030 -1178 -1296 0
-2030 -1246 0
-2030 -1185 1468 0
-2030 -1185 -1138 0
-2030 -1185 -1139 0
-2030 -1185 -1300 0
-2030 -1185 -1301 0
-2030 -1252 0
-2030 1449 0
-2031 1277 0
-2031 1278 1279 0
-2031 -1282 1456 0
-2031 -1282 -1120 0
-2031 -1282 -1121 0
-2031 -1282 -1179 0
-2031 -1282 -1180 0
-2031 -1236 0
-2031 -1287 1462 0
-2031 -1287 -1127 0
-2031 -1287 -1128 0
-2031 -1287 -1186 0
-2031 -1287 -1187 0
-2031 -1242 0
-2031 -1292 1468 0
-2031 -1292 -1134 0
-2031 -1292 -1135 0
-2031 -1292 -1193 0
-2031 -1292 -1194 0
-2031 -1248 0
-2031 1445 0
-2032 1277 0
-2032 1278 1279 1280 0
-2032 -1282 1456 0
-2032 -1282 -1121 0
-2032 -1282 -1122 0
-2032 -1282 -1180 0
-2032 -1282 -1181 0
-2032 -1237 0
-2032 -1287 1462 0
-2032 -1287 -1128 0
-2032 -1287 -1129 0
-2032 -1287 -1187 0
-2032 -1287 -1188 0
-2032 -1243 0
-2032 -1292 1468 0
-2032 -1292 -1135 0
-2032 -1292 -1136 0
-2032 -1292 -1194 0
-2032 -1292 -1195 0
-2032 -1249 0
-2032 1446 0
-2033 1277 0
-2033 1278 1279 1280 1281 0
-2033 -1282 1456 0
-2033 -1282 -1122 0
-2033 -1282 -1123 0
-2033 -1282 -1181 0
-2033 -1282 -1182 0
-2033 -1238 0
-2033 -1287 1462 0
-2033 -1287 -1129 0
-2033 -1287 -1130 0
-2033 -1287 -1188 0
-2033 -1287 -1189 0
-2033 -1244 0
-2033 -1292 1468 0
-2033 -1292 -1136 0
-2033 -1292 -1137 0
-2033 -1292 -1195 0
-2033 -1292 -1196 0
-2033 -1250 0
-2033 1447 0
-2034 1277 0
-2034 1279 1280 1281 0
-2034 -1282 1456 0
-2034 -1282 -1123 0
-2034 -1282 -1124 0
-2034 -1282 -1182 0
-2034 -1282 -1183 0
-2034 -1239 0
-2034 -1287 1462 0
-2034 -1287 -1130 0
-2034 -1287 -1131 0
-2034 -1287 -1189 0
-2034 -1287 -1190 0
-2034 -1245 0
-2034 -1292 1468 0
-2034 -1292 -1137 0
-2034 -1292 -1138 0
-2034 -1292 -1196 0
-2034 -1292 -1197 0
-2034 -1251 0
-2034 1448 0
-2035 1277 0
-2035 1280 1281 0
-2035 -1282 1456 0
-2035 -1282 -1124 0
-2035 -1282 -1125 0
-2035 -1282 -1183 0
-2035 -1282 -1184 0
-2035 -1240 0
-2035 -1287 1462 0
-2035 -1287 -1131 0
-2035 -1287 -1132 0
-2035 -1287 -1190 0
-2035 -1287 -1191 0
-2035 -1246 0
-2035 -1292 1468 0
-2035 -1292 -1138 0
-2035 -1292 -1139 0
-2035 -1292 -1197 0
-2035 -1292 -1198 0
-2035 -1252 0
-2035 1449 0
-2036 1326 0
-2036 -1283 0
-2036 -1113 0
-2036 -1114 0
-2036 -1115 0
-2036 -1172 0
-2036 -1173 0
-2036 -1174 0
-2036 -1230 0
-2036 -1231 0
-2036 -1232 0
-2036 1499 0
-2036 1503 0
-2037 1326 0
-2037 -1284 0
-2037 -1114 0
-2037 -1115 0
-2037 -1116 0
-2037 -1173 0
-2037 -1174 0
-2037 -1175 0
-2037 -1230 0
-2037 -1231 0
-2037 -1232 0
-2037 -1233 0
-2037 1500 0
-2037 1503 0
-2038 1326 0
-2038 -1285 0
-2038 -1115 0
-2038 -1116 0
-2038 -1117 0
-2038 -1174 0
-2038 -1175 0
-2038 -1176 0
-2038 -1231 0
-2038 -1232 0
-2038 -1233 0
-2038 -1234 0
-2038 1501 0
-2038 1503 0
-2039 1326 0
-2039 -1286 0
-2039 -1116 0
-2039 -1117 0
-2039 -1118 0
-2039 -1175 0
-2039 -1176 0
-2039 -1177 0
-2039 -1232 0
-2039 -1233 0
-2039 -1234 0
-2039 1502 0
-2039 1503 0
-2040 1326 0
-2040 1106 1107 1108 0
-2040 -1112 1508 0
-2040 -1112 -1179 0
-2040 -1112 -1180 0
-2040 -1112 -1181 0
-2040 -1112 -1236 0
-2040 -1112 -1237 0
-2040 -1112 -1238 0
-2040 -1288 0
-2040 -1119 1513 0
-2040 -1119 -1186 0
-2040 -1119 -1187 0
-2040 -1119 -1188 0
-2040 -1119 -1242 0
-2040 -1119 -1243 0
-2040 -1119 -1244 0
-2040 -1293 0
-2040 -1126 1518 0
-2040 -1126 -1193 0
-2040 -1126 -1194 0
-2040 -1126 -1195 0
-2040 -1126 -1248 0
-2040 -1126 -1249 0
-2040 -1126 -1250 0
-2040 -1298 0
-2040 1499 0
-2041 1326 0
-2041 1107 1108 1109 0
-2041 -1112 1508 0
-2041 -1112 -1180 0
-2041 -1112 -1181 0
-2041 -1112 -1182 0
-2041 -1112 -1236 0
-2041 -1112 -1237 0
-2041 -1112 -1238 0
-2041 -1112 -1239 0
-2041 -1289 0
-2041 -1119 1513 0
-2041 -1119 -1187 0
-2041 -1119 -1188 0
-2041 -1119 -1189 0
-2041 -1119 -1242 0
-2041 -1119 -1243 0
-2041 -1119 -1244 0
-2041 -1119 -1245 0
-2041 -1294 0
-2041 -1126 1518 0
-2041 -1126 -1194 0
-2041 -1126 -1195 0
-2041 -1126 -1196 0
-2041 -1126 -1248 0
-2041 -1126 -1249 0
-2041 -1126 -1250 0
-2041 -1126 -1251 0
-2041 -1299 0
-2041 1500 0
-2042 1326 0
-2042 1108 1109 1110 0
-2042 -1112 1508 0
-2042 -1112 -1181 0
-2042 -1112 -1182 0
-2042 -1112 -1183 0
-2042 -1112 -1237 0
-2042 -1112 -1238 0
-2042 -1112 -1239 0
-2042 -1112 -1240 0
-2042 -1290 0
-2042 -1119 1513 0
-2042 -1119 -1188 0
-2042 -1119 -1189 0
-2042 -1119 -1190 0
-2042 -1119 -1243 0
-2042 -1119 -1244 0
-2042 -1119 -1245 0
-2042 -1119 -1246 0
-2042 -1295 0
-2042 -1126 1518 0
-2042 -1126 -1195 0
-2042 -1126 -1196 0
-2042 -1126 -1197 0
-2042 -1126 -1249 0
-2042 -1126 -1250 0
-2042 -1126 -1251 0
-2042 -1126 -1252 0
-2042 -1300 0
-2042 1501 0
-2043 1326 0
-2043 1109 1110 1111 0
-2043 -1112 1508 0
-2043 -1112 -1182 0
-2043 -1112 -1183 0
-2043 -1112 -1184 0
-2043 -1112 -1238 0
-2043 -1112 -1239 0
-2043 -1112 -1240 0
-2043 -1291 0
-2043 -1119 1513 0
-2043 -1119 -1189 0
-2043 -1119 -1190 0
-2043 -1119 -1191 0
-2043 -1119 -1244 0
-2043 -1119 -1245 0
-2043 -1119 -1246 0
-2043 -1296 0
-2043 -1126 1518 0
-2043 -1126 -1196 0
-2043 -1126 -1197 0
-2043 -1126 -1198 0
-2043 -1126 -1250 0
-2043 -1126 -1251 0
-2043 -1126 -1252 0
-2043 -1301 0
-2043 1502 0
-2044 1326 0
-2044 1165 1166 1167 0
-2044 -1171 1508 0
-2044 -1171 -1120 0
-2044 -1171 -1121 0
-2044 -1171 -1122 0
-2044 -1171 -1236 0
-2044 -1171 -1237 0
-2044 -1171 -1238 0
-2044 -1288 0
-2044 -1178 1513 0
-2044 -1178 -1127 0
-2044 -1178 -1128 0
-2044 -1178 -1129 0
-2044 -1178 -1242 0
-2044 -1178 -1243 0
-2044 -1178 -1244 0
-2044 -1293 0
-2044 -1185 1518 0
-2044 -1185 -1134 0
-2044 -1185 -1135 0
-2044 -1185 -1136 0
-2044 -1185 -1248 0
-2044 -1185 -1249 0
-2044 -1185 -1250 0
-2044 -1298 0
-2044 1499 0
-2045 1326 0
-2045 1166 1167 1168 0
-2045 -1171 1508 0
-2045 -1171 -1121 0
-2045 -1171 -1122 0
-2045 -1171 -1123 0
-2045 -1171 -1236 0
-2045 -1171 -1237 0
-2045 -1171 -1238 0
-2045 -1171 -1239 0
-2045 -1289 0
-2045 -1178 1513 0
-2045 -1178 -1128 0
-2045 -1178 -1129 0
-2045 -1178 -1130 0
-2045 -1178 -1242 0
-2045 -1178 -1243 0
-2045 -1178 -1244 0
-2045 -1178 -1245 0
-2045 -1294 0
-2045 -1185 1518 0
-2045 -1185 -1135 0
-2045 -1185 -1136 0
-2045 -1185 -1137 0
-2045 -1185 -1248 0
-2045 -1185 -1249 0
-2045 -1185 -1250 0
-2045 -1185 -1251 0
-2045 -1299 0
-2045 1500 0
-2046 1326 0
-2046 1167 1168 1169 0
-2046 -1171 1508 0
-2046 -1171 -1122 0
-2046 -1171 -1123 0
-2046 -1171 -1124 0
-2046 -1171 -1237 0
-2046 -1171 -1238 0
-2046 -1171 -1239 0
-2046 -1171 -1240 0
-2046 -1290 0
-2046 -1178 1513 0
-2046 -1178 -1129 0
-2046 -1178 -1130 0
-2046 -1178 -1131 0
-2046 -1178 -1243 0
-2046 -1178 -1244 0
-2046 -1178 -1245 0
-2046 -1178 -1246 0
-2046 -1295 0
-2046 -1185 1518 0
-2046 -1185 -1136 0
-2046 -1185 -1137 0
-2046 -1185 -1138 0
-2046 -1185 -1249 0
-2046 -1185 -1250 0
-2046 -1185 -1251 0
-2046 -1185 -1252 0
-2046 -1300 0
-2046 1501 0
-2047 1326 0
-2047 1168 1169 1170 0
-2047 -1171 1508 0
-2047 -1171 -1123 0
-2047 -1171 -1124 0
-2047 -1171 -1125 0
-2047 -1171 -1238 0
-2047 -1171 -1239 0
-2047 -1171 -1240 0
-2047 -1291 0
-2047 -1178 1513 0
-2047 -1178 -1130 0
-2047 -1178 -1131 0
-2047 -1178 -1132 0
-2047 -1178 -1244 0
-2047 -1178 -1245 0
-2047 -1178 -1246 0
-2047 -1296 0
-2047 -1185 1518 0
-2047 -1185 -1137 0
-2047 -1185 -1138 0
-2047 -1185 -1139 0
-2047 -1185 -1250 0
-2047 -1185 -1251 0
-2047 -1185 -1252 0
-2047 -1301 0
-2047 1502 0
-2048 1326 0
-2048 1224 1225 1226 0
-2048 -1229 1508 0
-2048 -1229 -1120 0
-2048 -1229 -1121 0
-2048 -1229 -1122 0
-2048 -1229 -1179 0
-2048 -1229 -1180 0
-2048 -1229 -1181 0
-2048 -1288 0
-2048 -1235 1513 0
-2048 -1235 -1127 0
-2048 -1235 -1128 0
-2048 -1235 -1129 0
-2048 -1235 -1186 0
-2048 -1235 -1187 0
-2048 -1235 -1188 0
-2048 -1293 0
-2048 -1241 1518 0
-2048 -1241 -1134 0
-2048 -1241 -1135 0
-2048 -1241 -1136 0
-2048 -1241 -1193 0
-2048 -1241 -1194 0
-2048 -1241 -1195 0
-2048 -1298 0
-2048 1499 0
-2049 1326 0
-2049 1224 1225 1226 1227 0
-2049 -1229 1508 0
-2049 -1229 -1121 0
-2049 -1229 -1122 0
-2049 -1229 -1123 0
-2049 -1229 -1180 0
-2049 -1229 -1181 0
-2049 -1229 -1182 0
-2049 -1289 0
-2049 -1235 1513 0
-2049 -1235 -1128 0
-2049 -1235 -1129 0
-2049 -1235 -1130 0
-2049 -1235 -1187 0
-2049 -1235 -1188 0
-2049 -1235 -1189 0
-2049 -1294 0
-2049 -1241 1518 0
-2049 -1241 -1135 0
-2049 -1241 -1136 0
-2049 -1241 -1137 0
-2049 -1241 -1194 0
-2049 -1241 -1195 0
-2049 -1241 -1196 0
-2049 -1299 0
-2049 1500 0
-2050 1326 0
-2050 1225 1226 1227 1228 0
-2050 -1229 1508 0
-2050 -1229 -1122 0
-2050 -1229 -1123 0
-2050 -1229 -1124 0
-2050 -1229 -1181 0
-2050 -1229 -1182 0
-2050 -1229 -1183 0
-2050 -1290 0
-2050 -1235 1513 0
-2050 -1235 -1129 0
-2050 -1235 -1130 0
-2050 -1235 -1131 0
-2050 -1235 -1188 0
-2050 -1235 -1189 0
-2050 -1235 -1190 0
-2050 -1295 0
-2050 -1241 1518 0
-2050 -1241 -1136 0
-2050 -1241 -1137 0
-2050 -1241 -1138 0
-2050 -1241 -1195 0
-2050 -1241 -1196 0
-2050 -1241 -1197 0
-2050 -1300 0
-2050 1501 0
-2051 1326 0
-2051 1226 1227 1228 0
-2051 -1229 1508 0
-2051 -1229 -1123 0
-2051 -1229 -1124 0
-2051 -1229 -1125 0
-2051 -1229 -1182 0
-2051 -1229 -1183 0
-2051 -1229 -1184 0
-2051 -1291 0
-2051 -1235 1513 0
-2051 -1235 -1130 0
-2051 -1235 -1131 0
-2051 -1235 -1132 0
-2051 -1235 -1189 0
-2051 -1235 -1190 0
-2051 -1235 -1191 0
-2051 -1296 0
-2051 -1241 1518 0
-2051 -1241 -1137 0
-2051 -1241 -1138 0
-2051 -1241 -1139 0
-2051 -1241 -1196 0
-2051 -1241 -1197 0
-2051 -1241 -1198 0
-2051 -1301 0
-2051 1502 0
1548 1549 1550 1551 1552 1553 1554 1555 1556 1557 1558 1559 1560 1561 1562 1563 1564 1565 1566 1567 1568 1569 1570 1571 -1 222 0
1548 1549 1550 1551 1552 1553 1554 1555 1556 1557 1558 1559 1560 1561 1562 1563 1564 1565 1566 1567 1568 1569 1570 1571 -222 1 0
1548 1549 1550 1551 1552 1553 1554 1555 1556 1557 1558 1559 1560 1561 1562 1563 1564 1565 1566 1567 1568 1569 1570 1571 -2 223 0
1548 1549 1550 1551 1552 1553 1554 1555 1556 1557 1558 1559 1560 1561 1562 1563 1564 1565 1566 1567 1568 1569 1570 1571 -223 2 0
1548 1549 1550 1551 1552 1553 1554 1555 1556 1557 1558 1559 1560 1561 1562 1563 1564 1565 1566 1567 1568 1569 1570 1571 -3 224 0
1548 1549 1550 1551 1552 1553 1554 1555 1556 1557 1558 1559 1560 1561 1562 1563 1564 1565 1566 1567 1568 1569 1570 1571 -224 3 0
1548 1549 1550 1551 1552 1553 1554 1555 1556 1557 1558 1559 1560 1561 1562 1563 1564 1565 1566 1567 1568 1569 1570 1571 -4 225 0
1548 1549 1550 1551 1552 1553 1554 1555 1556 1557 1558 1559 1560 1561 1562 1563 1564 1565 1566 1567 1568 1569 1570 1571 -225 4 0
1548 1549 1550 1551 1552 1553 1554 1555 1556 1557 1558 1559 1560 1561 1562 1563 1564 1565 1566 1567 1568 1569 1570 1571 -5 226 0
1548 1549 1550 1551 1552 1553 1554 1555 1556 1557 1558 1559 1560 1561 1562 1563 1564 1565 1566 1567 1568 1569 1570 1571 -226 5 0
1548 1549 1550 1551 1552 1553 1554 1555 1556 1557 1558 1559 1560 1561 1562 1563 1564 1565 1566 1567 1568 1569 1570 1571 -6 227 0
1548 1549 1550 1551 1552 1553 1554 1555 1556 1557 1558 1559 1560 1561 1562 1563 1564 1565 1566 1567 1568 1569 1570 1571 -227 6 0
1548 1549 1550 1551 1552 1553 1554 1555 1556 1557 1558 1559 1560 1561 1562 1563 1564 1565 1566 1567 1568 1569 1570 1571 -7 228 0
1548 1549 1550 1551 1552 1553 1554 1555 1556 1557 1558 1559 1560 1561 1562 1563 1564 1565 1566 1567 1568 1569 1570 1571 -228 7 0
1548 1549 1550 1551 1552 1553 1554 1555 1556 1557 1558 1559 1560 1561 1562 1563 1564 1565 1566 1567 1568 1569 1570 1571 -14 235 0
1548 1549 1550 1551 1552 1553 1554 1555 1556 1557 1558 1559 1560 1561 1562 1563 1564 1565 1566 1567 1568 1569 1570 1571 -235 14 0
1548 1549 1550 1551 1552 1553 1554 1555 1556 1557 1558 1559 1560 1561 1562 1563 1564 1565 1566 1567 1568 1569 1570 1571 -21 242 0
1548 1549 1550 1551 1552 1553 1554 1555 1556 1557 1558 1559 1560 1561 1562 1563 1564 1565 1566 1567 1568 1569 1570 1571 -242 21 0
1548 1549 1550 1551 1552 1553 1554 1555 1556 1557 1558 1559 1560 1561 1562 1563 1564 1565 1566 1567 1568 1569 1570 1571 -28 249 0
1548 1549 1550 1551 1552 1553 1554 1555 1556 1557 1558 1559 1560 1561 1562 1563 1564 1565 1566 1567 1568 1569 1570 1571 -249 28 0
1572 1573 1574 1575 1576 1577 1578 1579 1580 1581 1582 1583 1584 1585 1586 1587 1588 1589 1590 1591 1592 1593 1594 1595 -60 281 0
1572 1573 1574 1575 1576 1577 1578 1579 1580 1581 1582 1583 1584 1585 1586 1587 1588 1589 1590 1591 1592 1593 1594 1595 -281 60 0
1572 1573 1574 1575 1576 1577 1578 1579 1580 1581 1582 1583 1584 1585 1586 1587 1588 1589 1590 1591 1592 1593 1594 1595 -61 282 0
1572 1573 1574 1575 1576 1577 1578 1579 1580 1581 1582 1583 1584 1585 1586 1587 1588 1589 1590 1591 1592 1593 1594 1595 -282 61 0
1572 1573 1574 1575 1576 1577 1578 1579 1580 1581 1582 1583 1584 1585 1586 1587 1588 1589 1590 1591 1592 1593 1594 1595 -62 283 0
1572 1573 1574 1575 1576 1577 1578 1579 1580 1581 1582 1583 1584 1585 1586 1587 1588 1589 1590 1591 1592 1593 1594 1595 -283 62 0
1572 1573 1574 1575 1576 1577 1578 1579 1580 1581 1582 1583 1584 1585 1586 1587 1588 1589 1590 1591 1592 1593 1594 1595 -63 284 0
1572 1573 1574 1575 1576 1577 1578 1579 1580 1581 1582 1583 1584 1585 1586 1587 1588 1589 1590 1591 1592 1593 1594 1595 -284 63 0
1572 1573 1574 1575 1576 1577 1578 1579 1580 1581 1582 1583 1584 1585 1586 1587 1588 1589 1590 1591 1592 1593 1594 1595 -64 285 0
1572 1573 1574 1575 1576 1577 1578 1579 1580 1581 1582 1583 1584 1585 1586 1587 1588 1589 1590 1591 1592 1593 1594 1595 -285 64 0
1572 1573 1574 1575 1576 1577 1578 1579 1580 1581 1582 1583 1584 1585 1586 1587 1588 1589 1590 1591 1592 1593 1594 1595 -65 286 0
1572 1573 1574 1575 1576 1577 1578 1579 1580 1581 1582 1583 1584 1585 1586 1587 1588 1589 1590 1591 1592 1593 1594 1595 -286 65 0
1572 1573 1574 1575 1576 1577 1578 1579 1580 1581 1582 1583 1584 1585 1586 1587 1588 1589 1590 1591 1592 1593 1594 1595 -66 287 0
1572 1573 1574 1575 1576 1577 1578 1579 1580 1581 1582 1583 1584 1585 1586 1587 1588 1589 1590 1591 1592 1593 1594 1595 -287 66 0
1572 1573 1574 1575 1576 1577 1578 1579 1580 1581 1582 1583 1584 1585 1586 1587 1588 1589 1590 1591 1592 1593 1594 1595 -73 294 0
1572 1573 1574 1575 1576 1577 1578 1579 1580 1581 1582 1583 1584 1585 1586 1587 1588 1589 1590 1591 1592 1593 1594 1595 -294 73 0
1572 1573 1574 1575 1576 1577 1578 1579 1580 1581 1582 1583 1584 1585 1586 1587 1588 1589 1590 1591 1592 1593 1594 1595 -80 301 0
1572 1573 1574 1575 1576 1577 1578 1579 1580 1581 1582 1583 1584 1585 1586 1587 1588 1589 1590 1591 1592 1593 1594 1595 -301 80 0
1572 1573 1574 1575 1576 1577 1578 1579 1580 1581 1582 1583 1584 1585 1586 1587 1588 1589 1590 1591 1592 1593 1594 1595 -87 308 0
1572 1573 1574 1575 1576 1577 1578 1579 1580 1581 1582 1583 1584 1585 1586 1587 1588 1589 1590 1591 1592 1593 1594 1595 -308 87 0
1596 1597 1598 1599 1600 1601 1602 1603 1604 1605 1606 1607 1608 1609 1610 1611 1612 1613 1614 1615 -119 340 0
1596 1597 1598 1599 1600 1601 1602 1603 1604 1605 1606 1607 1608 1609 1610 1611 1612 1613 1614 1615 -340 119 0
1596 1597 1598 1599 1600 1601 1602 1603 1604 1605 1606 1607 1608 1609 1610 1611 1612 1613 1614 1615 -120 341 0
1596 1597 1598 1599 1600 1601 1602 1603 1604 1605 1606 1607 1608 1609 1610 1611 1612 1613 1614 1615 -341 120 0
1596 1597 1598 1599 1600 1601 1602 1603 1604 1605 1606 1607 1608 1609 1610 1611 1612 1613 1614 1615 -121 342 0
1596 1597 1598 1599 1600 1601 1602 1603 1604 1605 1606 1607 1608 1609 1610 1611 1612 1613 1614 1615 -342 121 0
1596 1597 1598 1599 1600 1601 1602 1603 1604 1605 1606 1607 1608 1609 1610 1611 1612 1613 1614 1615 -122 343 0
1596 1597 1598 1599 1600 1601 1602 1603 1604 1605 1606 1607 1608 1609 1610 1611 1612 1613 1614 1615 -343 122 0
1596 1597 1598 1599 1600 1601 1602 1603 1604 1605 1606 1607 1608 1609 1610 1611 1612 1613 1614 1615 -123 344 0
1596 1597 1598 1599 1600 1601 1602 1603 1604 1605 1606 1607 1608 1609 1610 1611 1612 1613 1614 1615 -344 123 0
1596 1597 1598 1599 1600 1601 1602 1603 1604 1605 1606 1607 1608 1609 1610 1611 1612 1613 1614 1615 -124 345 0
1596 1597 1598 1599 1600 1601 1602 1603 1604 1605 1606 1607 1608 1609 1610 1611 1612 1613 1614 1615 -345 124 0
1596 1597 1598 1599 1600 1601 1602 1603 1604 1605 1606 1607 1608 1609 1610 1611 1612 1613 1614 1615 -130 351 0
1596 1597 1598 1599 1600 1601 1602 1603 1604 1605 1606 1607 1608 1609 1610 1611 1612 1613 1614 1615 -351 130 0
1596 1597 1598 1599 1600 1601 1602 1603 1604 1605 1606 1607 1608 1609 1610 1611 1612 1613 1614 1615 -136 357 0
1596 1597 1598 1599 1600 1601 1602 1603 1604 1605 1606 1607 1608 1609 1610 1611 1612 1613 1614 1615 -357 136 0
1596 1597 1598 1599 1600 1601 1602 1603 1604 1605 1606 1607 1608 1609 1610 1611 1612 1613 1614 1615 -142 363 0
1596 1597 1598 1599 1600 1601 1602 1603 1604 1605 1606 1607 1608 1609 1610 1611 1612 1613 1614 1615 -363 142 0
1616 1617 1618 1619 1620 1621 1622 1623 1624 1625 1626 1627 1628 1629 1630 1631 -173 394 0
1616 1617 1618 1619 1620 1621 1622 1623 1624 1625 1626 1627 1628 1629 1630 1631 -394 173 0
1616 1617 1618 1619 1620 1621 1622 1623 1624 1625 1626 1627 1628 1629 1630 1631 -174 395 0
1616 1617 1618 1619 1620 1621 1622 1623 1624 1625 1626 1627 1628 1629 1630 1631 -395 174 0
1616 1617 1618 1619 1620 1621 1622 1623 1624 1625 1626 1627 1628 1629 1630 1631 -175 396 0
1616 1617 1618 1619 1620 1621 1622 1623 1624 1625 1626 1627 1628 1629 1630 1631 -396 175 0
1616 1617 1618 1619 1620 1621 1622 1623 1624 1625 1626 1627 1628 1629 1630 1631 -176 397 0
1616 1617 1618 1619 1620 1621 1622 1623 1624 1625 1626 1627 1628 1629 1630 1631 -397 176 0
1616 1617 1618 1619 1620 1621 1622 1623 1624 1625 1626 1627 1628 1629 1630 1631 -177 398 0
1616 1617 1618 1619 1620 1621 1622 1623 1624 1625 1626 1627 1628 1629 1630 1631 -398 177 0
1616 1617 1618 1619 1620 1621 1622 1623 1624 1625 1626 1627 1628 1629 1630 1631 -182 403 0
1616 1617 1618 1619 1620 1621 1622 1623 1624 1625 1626 1627 1628 1629 1630 1631 -403 182 0
1616 1617 1618 1619 1620 1621 1622 1623 1624 1625 1626 1627 1628 1629 1630 1631 -187 408 0
1616 1617 1618 1619 1620 1621 1622 1623 1624 1625 1626 1627 1628 1629 1630 1631 -408 187 0
1616 1617 1618 1619 1620 1621 1622 1623 1624 1625 1626 1627 1628 1629 1630 1631 -192 413 0
1616 1617 1618 1619 1620 1621 1622 1623 1624 1625 1626 1627 1628 1629 1630 1631 -413 192 0
1632 1633 1634 1635 1636 1637 1638 1639 1640 1641 1642 1643 1644 1645 1646 1647 1648 1649 1650 1651 1652 1653 1654 1655 -222 443 0
1632 1633 1634 1635 1636 1637 1638 1639 1640 1641 1642 1643 1644 1645 1646 1647 1648 1649 1650 1651 1652 1653 1654 1655 -443 222 0
1632 1633 1634 1635 1636 1637 1638 1639 1640 1641 1642 1643 1644 1645 1646 1647 1648 1649 1650 1651 1652 1653 1654 1655 -223 444 0
1632 1633 1634 1635 1636 1637 1638 1639 1640 1641 1642 1643 1644 1645 1646 1647 1648 1649 1650 1651 1652 1653 1654 1655 -444 223 0
1632 1633 1634 1635 1636 1637 1638 1639 1640 1641 1642 1643 1644 1645 1646 1647 1648 1649 1650 1651 1652 1653 1654 1655 -224 445 0
1632 1633 1634 1635 1636 1637 1638 1639 1640 1641 1642 1643 1644 1645 1646 1647 1648 1649 1650 1651 1652 1653 1654 1655 -445 224 0
1632 1633 1634 1635 1636 1637 1638 1639 1640 1641 1642 1643 1644 1645 1646 1647 1648 1649 1650 1651 1652 1653 1654 1655 -225 446 0
1632 1633 1634 1635 1636 1637 1638 1639 1640 1641 1642 1643 1644 1645 1646 1647 1648 1649 1650 1651 1652 1653 1654 1655 -446 225 0
1632 1633 1634 1635 1636 1637 1638 1639 1640 1641 1642 1643 1644 1645 1646 1647 1648 1649 1650 1651 1652 1653 1654 1655 -226 447 0
1632 1633 1634 1635 1636 1637 1638 1639 1640 1641 1642 1643 1644 1645 1646 1647 1648 1649 1650 1651 1652 1653 1654 1655 -447 226 0
1632 1633 1634 1635 1636 1637 1638 1639 1640 1641 1642 1643 1644 1645 1646 1647 1648 1649 1650 1651 1652 1653 1654 1655 -227 448 0
1632 1633 1634 1635 1636 1637 1638 1639 1640 1641 1642 1643 1644 1645 1646 1647 1648 1649 1650 1651 1652 1653 1654 1655 -448 227 0
1632 1633 1634 1635 1636 1637 1638 1639 1640 1641 1642 1643 1644 1645 1646 1647 1648 1649 1650 1651 1652 1653 1654 1655 -228 449 0
1632 1633 1634 1635 1636 1637 1638 1639 1640 1641 1642 1643 1644 1645 1646 1647 1648 1649 1650 1651 1652 1653 1654 1655 -449 228 0
1632 1633 1634 1635 1636 1637 1638 1639 1640 1641 1642 1643 1644 1645 1646 1647 1648 1649 1650 1651 1652 1653 1654 1655 -235 456 0
1632 1633 1634 1635 1636 1637 1638 1639 1640 1641 1642 1643 1644 1645 1646 1647 1648 1649 1650 1651 1652 1653 1654 1655 -456 235 0
1632 1633 1634 1635 1636 1637 1638 1639 1640 1641 1642 1643 1644 1645 1646 1647 1648 1649 1650 1651 1652 1653 1654 1655 -242 463 0
1632 1633 1634 1635 1636 1637 1638 1639 1640 1641 1642 1643 1644 1645 1646 1647 1648 1649 1650 1651 1652 1653 1654 1655 -463 242 0
1632 1633 1634 1635 1636 1637 1638 1639 1640 1641 1642 1643 1644 1645 1646 1647 1648 1649 1650 1651 1652 1653 1654 1655 -249 470 0
1632 1633 1634 1635 1636 1637 1638 1639 1640 1641 1642 1643 1644 1645 1646 1647 1648 1649 1650 1651 1652 1653 1654 1655 -470 249 0
1656 1657 1658 1659 1660 1661 1662 1663 1664 1665 1666 1667 1668 1669 1670 1671 1672 1673 1674 1675 1676 1677 1678 1679 -281 502 0
1656 1657 1658 1659 1660 1661 1662 1663 1664 1665 1666 1667 1668 1669 1670 1671 1672 1673 1674 1675 1676 1677 1678 1679 -502 281 0
1656 1657 1658 1659 1660 1661 1662 1663 1664 1665 1666 1667 1668 1669 1670 1671 1672 1673 1674 1675 1676 1677 1678 1679 -282 503 0
1656 1657 1658 1659 1660 1661 1662 1663 1664 1665 1666 1667 1668 1669 1670 1671 1672 1673 1674 1675 1676 1677 1678 1679 -503 282 0
1656 1657 1658 1659 1660 1661 1662 1663 1664 1665 1666 1667 1668 1669 1670 1671 1672 1673 1674 1675 1676 1677 1678 1679 -283 504 0
1656 1657 1658 1659 1660 1661 1662 1663 1664 1665 1666 1667 1668 1669 1670 1671 1672 1673 1674 1675 1676 1677 1678 1679 -504 283 0
1656 1657 1658 1659 1660 1661 1662 1663 1664 1665 1666 1667 1668 1669 1670 1671 1672 1673 1674 1675 1676 1677 1678 1679 -284 505 0
1656 1657 1658 1659 1660 1661 1662 1663 1664 1665 1666 1667 1668 1669 1670 1671 1672 1673 1674 1675 1676 1677 1678 1679 -505 284 0
1656 1657 1658 1659 1660 1661 1662 1663 1664 1665 1666 1667 1668 1669 1670 1671 1672 1673 1674 1675 1676 1677 1678 1679 -285 506 0
1656 1657 1658 1659 1660 1661 1662 1663 1664 1665 1666 1667 1668 1669 1670 1671 1672 1673 1674 1675 1676 1677 1678 1679 -506 285 0
1656 1657 1658 1659 1660 1661 1662 1663 1664 1665 1666 1667 1668 1669 1670 1671 1672 1673 1674 1675 1676 1677 1678 1679 -286 507 0
1656 1657 1658 1659 1660 1661 1662 1663 1664 1665 1666 1667 1668 1669 1670 1671 1672 1673 1674 1675 1676 1677 1678 1679 -507 286 0
1656 1657 1658 1659 1660 1661 1662 1663 1664 1665 1666 1667 1668 1669 1670 1671 1672 1673 1674 1675 1676 1677 1678 1679 -287 508 0
1656 1657 1658 1659 1660 1661 1662 1663 1664 1665 1666 1667 1668 1669 1670 1671 1672 1673 1674 1675 1676 1677 1678 1679 -508 287 0
1656 1657 1658 1659 1660 1661 1662 1663 1664 1665 1666 1667 1668 1669 1670 1671 1672 1673 1674 1675 1676 1677 1678 1679 -294 515 0
1656 1657 1658 1659 1660 1661 1662 1663 1664 1665 1666 1667 1668 1669 1670 1671 1672 1673 1674 1675 1676 1677 1678 1679 -515 294 0
1656 1657 1658 1659 1660 1661 1662 1663 1664 1665 1666 1667 1668 1669 1670 1671 1672 1673 1674 1675 1676 1677 1678 1679 -301 522 0
1656 1657 1658 1659 1660 1661 1662 1663 1664 1665 1666 1667 1668 1669 1670 1671 1672 1673 1674 1675 1676 1677 1678 1679 -522 301 0
1656 1657 1658 1659 1660 1661 1662 1663 1664 1665 1666 1667 1668 1669 1670 1671 1672 1673 1674 1675 1676 1677 1678 1679 -308 529 0
1656 1657 1658 1659 1660 1661 1662 1663 1664 1665 1666 1667 1668 1669 1670 1671 1672 1673 1674 1675 1676 1677 1678 1679 -529 308 0
1680 1681 1682 1683 1684 1685 1686 1687 1688 1689 1690 1691 1692 1693 1694 1695 1696 1697 1698 1699 -340 561 0
1680 1681 1682 1683 1684 1685 1686 1687 1688 1689 1690 1691 1692 1693 1694 1695 1696 1697 1698 1699 -561 340 0
1680 1681 1682 1683 1684 1685 1686 1687 1688 1689 1690 1691 1692 1693 1694 1695 1696 1697 1698 1699 -341 562 0
1680 1681 1682 1683 1684 1685 1686 1687 1688 1689 1690 1691 1692 1693 1694 1695 1696 1697 1698 1699 -562 341 0
1680 1681 1682 1683 1684 1685 1686 1687 1688 1689 1690 1691 1692 1693 1694 1695 1696 1697 1698 1699 -342 563 0
1680 1681 1682 1683 1684 1685 1686 1687 1688 1689 1690 1691 1692 1693 1694 1695 1696 1697 1698 1699 -563 342 0
1680 1681 1682 1683 1684 1685 1686 1687 1688 1689 1690 1691 1692 1693 1694 1695 1696 1697 1698 1699 -343 564 0
1680 1681 1682 1683 1684 1685 1686 1687 1688 1689 1690 1691 1692 1693 1694 1695 1696 1697 1698 1699 -564 343 0
1680 1681 1682 1683 1684 1685 1686 1687 1688 1689 1690 1691 1692 1693 1694 1695 1696 1697 1698 1699 -344 565 0
1680 1681 1682 1683 1684 1685 1686 1687 1688 1689 1690 1691 1692 1693 1694 1695 1696 1697 1698 1699 -565 344 0
1680 1681 1682 1683 1684 1685 1686 1687 1688 1689 1690 1691 1692 1693 1694 1695 1696 1697 1698 1699 -345 566 0
1680 1681 1682 1683 1684 1685 1686 1687 1688 1689 1690 1691 1692 1693 1694 1695 1696 1697 1698 1699 -566 345 0
1680 1681 1682 1683 1684 1685 1686 1687 1688 1689 1690 1691 1692 1693 1694 1695 1696 1697 1698 1699 -351 572 0
1680 1681 1682 1683 1684 1685 1686 1687 1688 1689 1690 1691 1692 1693 1694 1695 1696 1697 1698 1699 -572 351 0
1680 1681 1682 1683 1684 1685 1686 1687 1688 1689 1690 1691 1692 1693 1694 1695 1696 1697 1698 1699 -357 578 0
1680 1681 1682 1683 1684 1685 1686 1687 1688 1689 1690 1691 1692 1693 1694 1695 1696 1697 1698 1699 -578 357 0
1680 1681 1682 1683 1684 1685 1686 1687 1688 1689 1690 1691 1692 1693 1694 1695 1696 1697 1698 1699 -363 584 0
1680 1681 1682 1683 1684 1685 1686 1687 1688 1689 1690 1691 1692 1693 1694 1695 1696 1697 1698 1699 -584 363 0
1700 1701 1702 1703 1704 1705 1706 1707 1708 1709 1710 1711 1712 1713 1714 1715 -394 615 0
1700 1701 1702 1703 1704 1705 1706 1707 1708 1709 1710 1711 1712 1713 1714 1715 -615 394 0
1700 1701 1702 1703 1704 1705 1706 1707 1708 1709 1710 1711 1712 1713 1714 1715 -395 616 0
1700 1701 1702 1703 1704 1705 1706 1707 1708 1709 1710 1711 1712 1713 1714 1715 -616 395 0
1700 1701 1702 1703 1704 1705 1706 1707 1708 1709 1710 1711 1712 1713 1714 1715 -396 617 0
1700 1701 1702 1703 1704 1705 1706 1707 1708 1709 1710 1711 1712 1713 1714 1715 -617 396 0
1700 1701 1702 1703 1704 1705 1706 1707 1708 1709 1710 1711 1712 1713 1714 1715 -397 618 0
1700 1701 1702 1703 1704 1705 1706 1707 1708 1709 1710 1711 1712 1713 1714 1715 -618 397 0
1700 1701 1702 1703 1704 1705 1706 1707 1708 1709 1710 1711 1712 1713 1714 1715 -398 619 0
1700 1701 1702 1703 1704 1705 1706 1707 1708 1709 1710 1711 1712 1713 1714 1715 -619 398 0
1700 1701 1702 1703 1704 1705 1706 1707 1708 1709 1710 1711 1712 1713 1714 1715 -403 624 0
1700 1701 1702 1703 1704 1705 1706 1707 1708 1709 1710 1711 1712 1713 1714 1715 -624 403 0
1700 1701 1702 1703 1704 1705 1706 1707 1708 1709 1710 1711 1712 1713 1714 1715 -408 629 0
1700 1701 1702 1703 1704 1705 1706 1707 1708 1709 1710 1711 1712 1713 1714 1715 -629 408 0
1700 1701 1702 1703 1704 1705 1706 1707 1708 1709 1710 1711 1712 1713 1714 1715 -413 634 0
1700 1701 1702 1703 1704 1705 1706 1707 1708 1709 1710 1711 1712 1713 1714 1715 -634 413 0
1716 1717 1718 1719 1720 1721 1722 1723 1724 1725 1726 1727 1728 1729 1730 1731 1732 1733 1734 1735 1736 1737 1738 1739 -443 664 0
1716 1717 1718 1719 1720 1721 1722 1723 1724 1725 1726 1727 1728 1729 1730 1731 1732 1733 1734 1735 1736 1737 1738 1739 -664 443 0
1716 1717 1718 1719 1720 1721 1722 1723 1724 1725 1726 1727 1728 1729 1730 1731 1732 1733 1734 1735 1736 1737 1738 1739 -444 665 0
1716 1717 1718 1719 1720 1721 1722 1723 1724 1725 1726 1727 1728 1729 1730 1731 1732 1733 1734 1735 1736 1737 1738 1739 -665 444 0
1716 1717 1718 1719 1720 1721 1722 1723 1724 1725 1726 1727 1728 1729 1730 1731 1732 1733 1734 1735 1736 1737 1738 1739 -445 666 0
1716 1717 1718 1719 1720 1721 1722 1723 1724 1725 1726 1727 1728 1729 1730 1731 1732 1733 1734 1735 1736 1737 1738 1739 -666 445 0
1716 1717 1718 1719 1720 1721 1722 1723 1724 1725 1726 1727 1728 1729 1730 1731 1732 1733 1734 1735 1736 1737 1738 1739 -446 667 0
1716 1717 1718 1719 1720 1721 1722 1723 1724 1725 1726 1727 1728 1729 1730 1731 1732 1733 1734 1735 1736 1737 1738 1739 -667 446 0
1716 1717 1718 1719 1720 1721 1722 1723 1724 1725 1726 1727 1728 1729 1730 1731 1732 1733 1734 1735 1736 1737 1738 1739 -447 668 0
1716 1717 1718 1719 1720 1721 1722 1723 1724 1725 1726 1727 1728 1729 1730 1731 1732 1733 1734 1735 1736 1737 1738 1739 -668 447 0
1716 1717 1718 1719 1720 1721 1722 1723 1724 1725 1726 1727 1728 1729 1730 1731 1732 1733 1734 1735 1736 1737 1738 1739 -448 669 0
1716 1717 1718 1719 1720 1721 1722 1723 1724 1725 1726 1727 1728 1729 1730 1731 1732 1733 1734 1735 1736 1737 1738 1739 -669 448 0
1716 1717 1718 1719 1720 1721 1722 1723 1724 1725 1726 1727 1728 1729 1730 1731 1732 1733 1734 1735 1736 1737 1738 1739 -449 670 0
1716 1717 1718 1719 1720 1721 1722 1723 1724 1725 1726 1727 1728 1729 1730 1731 1732 1733 1734 1735 1736 1737 1738 1739 -670 449 0
1716 1717 1718 1719 1720 1721 1722 1723 1724 1725 1726 1727 1728 1729 1730 1731 1732 1733 1734 1735 1736 1737 1738 1739 -456 677 0
1716 1717 1718 1719 1720 1721 1722 1723 1724 1725 1726 1727 1728 1729 1730 1731 1732 1733 1734 1735 1736 1737 1738 1739 -677 456 0
1716 1717 1718 1719 1720 1721 1722 1723 1724 1725 1726 1727 1728 1729 1730 1731 1732 1733 1734 1735 1736 1737 1738 1739 -463 684 0
1716 1717 1718 1719 1720 1721 1722 1723 1724 1725 1726 1727 1728 1729 1730 1731 1732 1733 1734 1735 1736 1737 1738 1739 -684 463 0
1716 1717 1718 1719 1720 1721 1722 1723 1724 1725 1726 1727 1728 1729 1730 1731 1732 1733 1734 1735 1736 1737 1738 1739 -470 691 0
1716 1717 1718 1719 1720 1721 1722 1723 1724 1725 1726 1727 1728 1729 1730 1731 1732 1733 1734 1735 1736 1737 1738 1739 -691 470 0
1740 1741 1742 1743 1744 1745 1746 1747 1748 1749 1750 1751 1752 1753 1754 1755 1756 1757 1758 1759 1760 1761 1762 1763 -502 723 0
1740 1741 1742 1743 1744 1745 1746 1747 1748 1749 1750 1751 1752 1753 1754 1755 1756 1757 1758 1759 1760 1761 1762 1763 -723 502 0
1740 1741 1742 1743 1744 1745 1746 1747 1748 1749 1750 1751 1752 1753 1754 1755 1756 1757 1758 1759 1760 1761 1762 1763 -503 724 0
1740 1741 1742 1743 1744 1745 1746 1747 1748 1749 1750 1751 1752 1753 1754 1755 1756 1757 1758 1759 1760 1761 1762 1763 -724 503 0
1740 1741 1742 1743 1744 1745 1746 1747 1748 1749 1750 1751 1752 1753 1754 1755 1756 1757 1758 1759 1760 1761 1762 1763 -504 725 0
1740 1741 1742 1743 1744 1745 1746 1747 1748 1749 1750 1751 1752 1753 1754 1755 1756 1757 1758 1759 1760 1761 1762 1763 -725 504 0
1740 1741 1742 1743 1744 1745 1746 1747 1748 1749 1750 1751 1752 1753 1754 1755 1756 1757 1758 1759 1760 1761 1762 1763 -505 726 0
1740 1741 1742 1743 1744 1745 1746 1747 1748 1749 1750 1751 1752 1753 1754 1755 1756 1757 1758 1759 1760 1761 1762 1763 -726 505 0
1740 1741 1742 1743 1744 1745 1746 1747 1748 1749 1750 1751 1752 1753 1754 1755 1756 1757 1758 1759 1760 1761 1762 1763 -506 727 0
1740 1741 1742 1743 1744 1745 1746 1747 1748 1749 1750 1751 1752 1753 1754 1755 1756 1757 1758 1759 1760 1761 1762 1763 -727 506 0
1740 1741 1742 1743 1744 1745 1746 1747 1748 1749 1750 1751 1752 1753 1754 1755 1756 1757 1758 1759 1760 1761 1762 1763 -507 728 0
1740 1741 1742 1743 1744 1745 1746 1747 1748 1749 1750 1751 1752 1753 1754 1755 1756 1757 1758 1759 1760 1761 1762 1763 -728 507 0
1740 1741 1742 1743 1744 1745 1746 1747 1748 1749 1750 1751 1752 1753 1754 1755 1756 1757 1758 1759 1760 1761 1762 1763 -508 729 0
1740 1741 1742 1743 1744 1745 1746 1747 1748 1749 1750 1751 1752 1753 1754 1755 1756 1757 1758 1759 1760 1761 1762 1763 -729 508 0
1740 1741 1742 1743 1744 1745 1746 1747 1748 1749 1750 1751 1752 1753 1754 1755 1756 1757 1758 1759 1760 1761 1762 1763 -515 736 0
1740 1741 1742 1743 1744 1745 1746 1747 1748 1749 1750 1751 1752 1753 1754 1755 1756 1757 1758 1759 1760 1761 1762 1763 -736 515 0
1740 1741 1742 1743 1744 1745 1746 1747 1748 1749 1750 1751 1752 1753 1754 1755 1756 1757 1758 1759 1760 1761 1762 1763 -522 743 0
1740 1741 1742 1743 1744 1745 1746 1747 1748 1749 1750 1751 1752 1753 1754 1755 1756 1757 1758 1759 1760 1761 1762 1763 -743 522 0
1740 1741 1742 1743 1744 1745 1746 1747 1748 1749 1750 1751 1752 1753 1754 1755 1756 1757 1758 1759 1760 1761 1762 1763 -529 750 0
1740 1741 1742 1743 1744 1745 1746 1747 1748 1749 1750 1751 1752 1753 1754 1755 1756 1757 1758 1759 1760 1761 1762 1763 -750 529 0
1764 1765 1766 1767 1768 1769 1770 1771 1772 1773 1774 1775 1776 1777 1778 1779 1780 1781 1782 1783 -561 782 0
1764 1765 1766 1767 1768 1769 1770 1771 1772 1773 1774 1775 1776 1777 1778 1779 1780 1781 1782 1783 -782 561 0
1764 1765 1766 1767 1768 1769 1770 1771 1772 1773 1774 1775 1776 1777 1778 1779 1780 1781 1782 1783 -562 783 0
1764 1765 1766 1767 1768 1769 1770 1771 1772 1773 1774 1775 1776 1777 1778 1779 1780 1781 1782 1783 -783 562 0
1764 1765 1766 1767 1768 1769 1770 1771 1772 1773 1774 1775 1776 1777 1778 1779 1780 1781 1782 1783 -563 784 0
1764 1765 1766 1767 1768 1769 1770 1771 1772 1773 1774 1775 1776 1777 1778 1779 1780 1781 1782 1783 -784 563 0
1764 1765 1766 1767 1768 1769 1770 1771 1772 1773 1774 1775 1776 1777 1778 1779 1780 1781 1782 1783 -564 785 0
1764 1765 1766 1767 1768 1769 1770 1771 1772 1773 1774 1775 1776 1777 1778 1779 1780 1781 1782 1783 -785 564 0
1764 1765 1766 1767 1768 1769 1770 1771 1772 1773 1774 1775 1776 1777 1778 1779 1780 1781 1782 1783 -565 786 0
1764 1765 1766 1767 1768 1769 1770 1771 1772 1773 1774 1775 1776 1777 1778 1779 1780 1781 1782 1783 -786 565 0
1764 1765 1766 1767 1768 1769 1770 1771 1772 1773 1774 1775 1776 1777 1778 1779 1780 1781 1782 1783 -566 787 0
1764 1765 1766 1767 1768 1769 1770 1771 1772 1773 1774 1775 1776 1777 1778 1779 1780 1781 1782 1783 -787 566 0
1764 1765 1766 1767 1768 1769 1770 1771 1772 1773 1774 1775 1776 1777 1778 1779 1780 1781 1782 1783 -572 793 0
1764 1765 1766 1767 1768 1769 1770 1771 1772 1773 1774 1775 1776 1777 1778 1779 1780 1781 1782 1783 -793 572 0
1764 1765 1766 1767 1768 1769 1770 1771 1772 1773 1774 1775 1776 1777 1778 1779 1780 1781 1782 1783 -578 799 0
1764 1765 1766 1767 1768 1769 1770 1771 1772 1773 1774 1775 1776 1777 1778 1779 1780 1781 1782 1783 -799 578 0
1764 1765 1766 1767 1768 1769 1770 1771 1772 1773 1774 1775 1776 1777 1778 1779 1780 1781 1782 1783 -584 805 0
1764 1765 1766 1767 1768 1769 1770 1771 1772 1773 1774 1775 1776 1777 1778 1779 1780 1781 1782 1783 -805 584 0
1784 1785 1786 1787 1788 1789 1790 1791 1792 1793 1794 1795 1796 1797 1798 1799 -615 836 0
1784 1785 1786 1787 1788 1789 1790 1791 1792 1793 1794 1795 1796 1797 1798 1799 -836 615 0
1784 1785 1786 1787 1788 1789 1790 1791 1792 1793 1794 1795 1796 1797 1798 1799 -616 837 0
1784 1785 1786 1787 1788 1789 1790 1791 1792 1793 1794 1795 1796 1797 1798 1799 -837 616 0
1784 1785 1786 1787 1788 1789 1790 1791 1792 1793 1794 1795 1796 1797 1798 1799 -617 838 0
1784 1785 1786 1787 1788 1789 1790 1791 1792 1793 1794 1795 1796 1797 1798 1799 -838 617 0
1784 1785 1786 1787 1788 1789 1790 1791 1792 1793 1794 1795 1796 1797 1798 1799 -618 839 0
1784 1785 1786 1787 1788 1789 1790 1791 1792 1793 1794 1795 1796 1797 1798 1799 -839 618 0
1784 1785 1786 1787 1788 1789 1790 1791 1792 1793 1794 1795 1796 1797 1798 1799 -619 840 0
1784 1785 1786 1787 1788 1789 1790 1791 1792 1793 1794 1795 1796 1797 1798 1799 -840 619 0
1784 1785 1786 1787 1788 1789 1790 1791 1792 1793 1794 1795 1796 1797 1798 1799 -624 845 0
1784 1785 1786 1787 1788 1789 1790 1791 1792 1793 1794 1795 1796 1797 1798 1799 -845 624 0
1784 1785 1786 1787 1788 1789 1790 1791 1792 1793 1794 1795 1796 1797 1798 1799 -629 850 0
1784 1785 1786 1787 1788 1789 1790 1791 1792 1793 1794 1795 1796 1797 1798 1799 -850 629 0
1784 1785 1786 1787 1788 1789 1790 1791 1792 1793 1794 1795 1796 1797 1798 1799 -634 855 0
1784 1785 1786 1787 1788 1789 1790 1791 1792 1793 1794 1795 1796 1797 1798 1799 -855 634 0
1800 1801 1802 1803 1804 1805 1806 1807 1808 1809 1810 1811 1812 1813 1814 1815 1816 1817 1818 1819 1820 1821 1822 1823 -664 885 0
1800 1801 1802 1803 1804 1805 1806 1807 1808 1809 1810 1811 1812 1813 1814 1815 1816 1817 1818 1819 1820 1821 1822 1823 -885 664 0
1800 1801 1802 1803 1804 1805 1806 1807 1808 1809 1810 1811 1812 1813 1814 1815 1816 1817 1818 1819 1820 1821 1822 1823 -665 886 0
1800 1801 1802 1803 1804 1805 1806 1807 1808 1809 1810 1811 1812 1813 1814 1815 1816 1817 1818 1819 1820 1821 1822 1823 -886 665 0
1800 1801 1802 1803 1804 1805 1806 1807 1808 1809 1810 1811 1812 1813 1814 1815 1816 1817 1818 1819 1820 1821 1822 1823 -666 887 0
1800 1801 1802 1803 1804 1805 1806 1807 1808 1809 1810 1811 1812 1813 1814 1815 1816 1817 1818 1819 1820 1821 1822 1823 -887 666 0
1800 1801 1802 1803 1804 1805 1806 1807 1808 1809 1810 1811 1812 1813 1814 1815 1816 1817 1818 1819 1820 1821 1822 1823 -667 888 0
1800 1801 1802 1803 1804 1805 1806 1807 1808 1809 1810 1811 1812 1813 1814 1815 1816 1817 1818 1819 1820 1821 1822 1823 -888 667 0
1800 1801 1802 1803 1804 1805 1806 1807 1808 1809 1810 1811 1812 1813 1814 1815 1816 1817 1818 1819 1820 1821 1822 1823 -668 889 0
1800 1801 1802 1803 1804 1805 1806 1807 1808 1809 1810 1811 1812 1813 1814 1815 1816 1817 1818 1819 1820 1821 1822 1823 -889 668 0
1800 1801 1802 1803 1804 1805 1806 1807 1808 1809 1810 1811 1812 1813 1814 1815 1816 1817 1818 1819 1820 1821 1822 1823 -669 890 0
1800 1801 1802 1803 1804 1805 1806 1807 1808 1809 1810 1811 1812 1813 1814 1815 1816 1817 1818 1819 1820 1821 1822 1823 -890 669 0
1800 1801 1802 1803 1804 1805 1806 1807 1808 1809 1810 1811 1812 1813 1814 1815 1816 1817 1818 1819 1820 1821 1822 1823 -670 891 0
1800 1801 1802 1803 1804 1805 1806 1807 1808 1809 1810 1811 1812 1813 1814 1815 1816 1817 1818 1819 1820 1821 1822 1823 -891 670 0
1800 1801 1802 1803 1804 1805 1806 1807 1808 1809 1810 1811 1812 1813 1814 1815 1816 1817 1818 1819 1820 1821 1822 1823 -677 898 0
1800 1801 1802 1803 1804 1805 1806 1807 1808 1809 1810 1811 1812 1813 1814 1815 1816 1817 1818 1819 1820 1821 1822 1823 -898 677 0
1800 1801 1802 1803 1804 1805 1806 1807 1808 1809 1810 1811 1812 1813 1814 1815 1816 1817 1818 1819 1820 1821 1822 1823 -684 905 0
1800 1801 1802 1803 1804 1805 1806 1807 1808 1809 1810 1811 1812 1813 1814 1815 1816 1817 1818 1819 1820 1821 1822 1823 -905 684 0
1800 1801 1802 1803 1804 1805 1806 1807 1808 1809 1810 1811 1812 1813 1814 1815 1816 1817 1818 1819 1820 1821 1822 1823 -691 912 0
1800 1801 1802 1803 1804 1805 1806 1807 1808 1809 1810 1811 1812 1813 1814 1815 1816 1817 1818 1819 1820 1821 1822 1823 -912 691 0
1824 1825 1826 1827 1828 1829 1830 1831 1832 1833 1834 1835 1836 1837 1838 1839 1840 1841 1842 1843 1844 1845 1846 1847 -723 944 0
1824 1825 1826 1827 1828 1829 1830 1831 1832 1833 1834 1835 1836 1837 1838 1839 1840 1841 1842 1843 1844 1845 1846 1847 -944 723 0
1824 1825 1826 1827 1828 1829 1830 1831 1832 1833 1834 1835 1836 1837 1838 1839 1840 1841 1842 1843 1844 1845 1846 1847 -724 945 0
1824 1825 1826 1827 1828 1829 1830 1831 1832 1833 1834 1835 1836 1837 1838 1839 1840 1841 1842 1843 1844 1845 1846 1847 -945 724 0
1824 1825 1826 1827 1828 1829 1830 1831 1832 1833 1834 1835 1836 1837 1838 1839 1840 1841 1842 1843 1844 1845 1846 1847 -725 946 0
1824 1825 1826 1827 1828 1829 1830 1831 1832 1833 1834 1835 1836 1837 1838 1839 1840 1841 1842 1843 1844 1845 1846 1847 -946 725 0
1824 1825 1826 1827 1828 1829 1830 1831 1832 1833 1834 1835 1836 1837 1838 1839 1840 1841 1842 1843 1844 1845 1846 1847 -726 947 0
1824 1825 1826 1827 1828 1829 1830 1831 1832 1833 1834 1835 1836 1837 1838 1839 1840 1841 1842 1843 1844 1845 1846 1847 -947 726 0
1824 1825 1826 1827 1828 1829 1830 1831 1832 1833 1834 1835 1836 1837 1838 1839 1840 1841 1842 1843 1844 1845 1846 1847 -727 948 0
1824 1825 1826 1827 1828 1829 1830 1831 1832 1833 1834 1835 1836 1837 1838 1839 1840 1841 1842 1843 1844 1845 1846 1847 -948 727 0
1824 1825 1826 1827 1828 1829 1830 1831 1832 1833 1834 1835 1836 1837 1838 1839 1840 1841 1842 1843 1844 1845 1846 1847 -728 949 0
1824 1825 1826 1827 1828 1829 1830 1831 1832 1833 1834 1835 1836 1837 1838 1839 1840 1841 1842 1843 1844 1845 1846 1847 -949 728 0
1824 1825 1826 1827 1828 1829 1830 1831 1832 1833 1834 1835 1836 1837 1838 1839 1840 1841 1842 1843 1844 1845 1846 1847 -729 950 0
1824 1825 1826 1827 1828 1829 1830 1831 1832 1833 1834 1835 1836 1837 1838 1839 1840 1841 1842 1843 1844 1845 1846 1847 -950 729 0
1824 1825 1826 1827 1828 1829 1830 1831 1832 1833 1834 1835 1836 1837 1838 1839 1840 1841 1842 1843 1844 1845 1846 1847 -736 957 0
1824 1825 1826 1827 1828 1829 1830 1831 1832 1833 1834 1835 1836 1837 1838 1839 1840 1841 1842 1843 1844 1845 1846 1847 -957 736 0
1824 1825 1826 1827 1828 1829 1830 1831 1832 1833 1834 1835 1836 1837 1838 1839 1840 1841 1842 1843 1844 1845 1846 1847 -743 964 0
1824 1825 1826 1827 1828 1829 1830 1831 1832 1833 1834 1835 1836 1837 1838 1839 1840 1841 1842 1843 1844 1845 1846 1847 -964 743 0
1824 1825 1826 1827 1828 1829 1830 1831 1832 1833 1834 1835 1836 1837 1838 1839 1840 1841 1842 1843 1844 1845 1846 1847 -750 971 0
1824 1825 1826 1827 1828 1829 1830 1831 1832 1833 1834 1835 1836 1837 1838 1839 1840 1841 1842 1843 1844 1845 1846 1847 -971 750 0
1848 1849 1850 1851 1852 1853 1854 1855 1856 1857 1858 1859 1860 1861 1862 1863 1864 1865 1866 1867 -782 1003 0
1848 1849 1850 1851 1852 1853 1854 1855 1856 1857 1858 1859 1860 1861 1862 1863 1864 1865 1866 1867 -1003 782 0
1848 1849 1850 1851 1852 1853 1854 1855 1856 1857 1858 1859 1860 1861 1862 1863 1864 1865 1866 1867 -783 1004 0
1848 1849 1850 1851 1852 1853 1854 1855 1856 1857 1858 1859 1860 1861 1862 1863 1864 1865 1866 1867 -1004 783 0
1848 1849 1850 1851 1852 1853 1854 1855 1856 1857 1858 1859 1860 1861 1862 1863 1864 1865 1866 1867 -784 1005 0
1848 1849 1850 1851 1852 1853 1854 1855 1856 1857 1858 1859 1860 1861 1862 1863 1864 1865 1866 1867 -1005 784 0
1848 1849 1850 1851 1852 1853 1854 1855 1856 1857 1858 1859 1860 1861 1862 1863 1864 1865 1866 1867 -785 1006 0
1848 1849 1850 1851 1852 1853 1854 1855 1856 1857 1858 1859 1860 1861 1862 1863 1864 1865 1866 1867 -1006 785 0
1848 1849 1850 1851 1852 1853 1854 1855 1856 1857 1858 1859 1860 1861 1862 1863 1864 1865 1866 1867 -786 1007 0
1848 1849 1850 1851 1852 1853 1854 1855 1856 1857 1858 1859 1860 1861 1862 1863 1864 1865 1866 1867 -1007 786 0
1848 1849 1850 1851 1852 1853 1854 1855 1856 1857 1858 1859 1860 1861 1862 1863 1864 1865 1866 1867 -787 1008 0
1848 1849 1850 1851 1852 1853 1854 1855 1856 1857 1858 1859 1860 1861 1862 1863 1864 1865 1866 1867 -1008 787 0
1848 1849 1850 1851 1852 1853 1854 1855 1856 1857 1858 1859 1860 1861 1862 1863 1864 1865 1866 1867 -793 1014 0
1848 1849 1850 1851 1852 1853 1854 1855 1856 1857 1858 1859 1860 1861 1862 1863 1864 1865 1866 1867 -1014 793 0
1848 1849 1850 1851 1852 1853 1854 1855 1856 1857 1858 1859 1860 1861 1862 1863 1864 1865 1866 1867 -799 1020 0
1848 1849 1850 1851 1852 1853 1854 1855 1856 1857 1858 1859 1860 1861 1862 1863 1864 1865 1866 1867 -1020 799 0
1848 1849 1850 1851 1852 1853 1854 1855 1856 1857 1858 1859 1860 1861 1862 1863 1864 1865 1866 1867 -805 1026 0
1848 1849 1850 1851 1852 1853 1854 1855 1856 1857 1858 1859 1860 1861 1862 1863 1864 1865 1866 1867 -1026 805 0
1868 1869 1870 1871 1872 1873 1874 1875 1876 1877 1878 1879 1880 1881 1882 1883 -836 1057 0
1868 1869 1870 1871 1872 1873 1874 1875 1876 1877 1878 1879 1880 1881 1882 1883 -1057 836 0
1868 1869 1870 1871 1872 1873 1874 1875 1876 1877 1878 1879 1880 1881 1882 1883 -837 1058 0
1868 1869 1870 1871 1872 1873 1874 1875 1876 1877 1878 1879 1880 1881 1882 1883 -1058 837 0
1868 1869 1870 1871 1872 1873 1874 1875 1876 1877 1878 1879 1880 1881 1882 1883 -838 1059 0
1868 1869 1870 1871 1872 1873 1874 1875 1876 1877 1878 1879 1880 1881 1882 1883 -1059 838 0
1868 1869 1870 1871 1872 1873 1874 1875 1876 1877 1878 1879 1880 1881 1882 1883 -839 1060 0
1868 1869 1870 1871 1872 1873 1874 1875 1876 1877 1878 1879 1880 1881 1882 1883 -1060 839 0
1868 1869 1870 1871 1872 1873 1874 1875 1876 1877 1878 1879 1880 1881 1882 1883 -840 1061 0
1868 1869 1870 1871 1872 1873 1874 1875 1876 1877 1878 1879 1880 1881 1882 1883 -1061 840 0
1868 1869 1870 1871 1872 1873 1874 1875 1876 1877 1878 1879 1880 1881 1882 1883 -845 1066 0
1868 1869 1870 1871 1872 1873 1874 1875 1876 1877 1878 1879 1880 1881 1882 1883 -1066 845 0
1868 1869 1870 1871 1872 1873 1874 1875 1876 1877 1878 1879 1880 1881 1882 1883 -850 1071 0
1868 1869 1870 1871 1872 1873 1874 1875 1876 1877 1878 1879 1880 1881 1882 1883 -1071 850 0
1868 1869 1870 1871 1872 1873 1874 1875 1876 1877 1878 1879 1880 1881 1882 1883 -855 1076 0
1868 1869 1870 1871 1872 1873 1874 1875 1876 1877 1878 1879 1880 1881 1882 1883 -1076 855 0
1884 1885 1886 1887 1888 1889 1890 1891 1892 1893 1894 1895 1896 1897 1898 1899 1900 1901 1902 1903 1904 1905 1906 1907 -885 1106 0
1884 1885 1886 1887 1888 1889 1890 1891 1892 1893 1894 1895 1896 1897 1898 1899 1900 1901 1902 1903 1904 1905 1906 1907 -1106 885 0
1884 1885 1886 1887 1888 1889 1890 1891 1892 1893 1894 1895 1896 1897 1898 1899 1900 1901 1902 1903 1904 1905 1906 1907 -886 1107 0
1884 1885 1886 1887 1888 1889 1890 1891 1892 1893 1894 1895 1896 1897 1898 1899 1900 1901 1902 1903 1904 1905 1906 1907 -1107 886 0
1884 1885 1886 1887 1888 1889 1890 1891 1892 1893 1894 1895 1896 1897 1898 1899 1900 1901 1902 1903 1904 1905 1906 1907 -887 1108 0
1884 1885 1886 1887 1888 1889 1890 1891 1892 1893 1894 1895 1896 1897 1898 1899 1900 1901 1902 1903 1904 1905 1906 1907 -1108 887 0
1884 1885 1886 1887 1888 1889 1890 1891 1892 1893 1894 1895 1896 1897 1898 1899 1900 1901 1902 1903 1904 1905 1906 1907 -888 1109 0
1884 1885 1886 1887 1888 1889 1890 1891 1892 1893 1894 1895 1896 1897 1898 1899 1900 1901 1902 1903 1904 1905 1906 1907 -1109 888 0
1884 1885 1886 1887 1888 1889 1890 1891 1892 1893 1894 1895 1896 1897 1898 1899 1900 1901 1902 1903 1904 1905 1906 1907 -889 1110 0
1884 1885 1886 1887 1888 1889 1890 1891 1892 1893 1894 1895 1896 1897 1898 1899 1900 1901 1902 1903 1904 1905 1906 1907 -1110 889 0
1884 1885 1886 1887 1888 1889 1890 1891 1892 1893 1894 1895 1896 1897 1898 1899 1900 1901 1902 1903 1904 1905 1906 1907 -890 1111 0
1884 1885 1886 1887 1888 1889 1890 1891 1892 1893 1894 1895 1896 1897 1898 1899 1900 1901 1902 1903 1904 1905 1906 1907 -1111 890 0
1884 1885 1886 1887 1888 1889 1890 1891 1892 1893 1894 1895 1896 1897 1898 1899 1900 1901 1902 1903 1904 1905 1906 1907 -891 1112 0
1884 1885 1886 1887 1888 1889 1890 1891 1892 1893 1894 1895 1896 1897 1898 1899 1900 1901 1902 1903 1904 1905 1906 1907 -1112 891 0
1884 1885 1886 1887 1888 1889 1890 1891 1892 1893 1894 1895 1896 1897 1898 1899 1900 1901 1902 1903 1904 1905 1906 1907 -898 1119 0
1884 1885 1886 1887 1888 1889 1890 1891 1892 1893 1894 1895 1896 1897 1898 1899 1900 1901 1902 1903 1904 1905 1906 1907 -1119 898 0
1884 1885 1886 1887 1888 1889 1890 1891 1892 1893 1894 1895 1896 1897 1898 1899 1900 1901 1902 1903 1904 1905 1906 1907 -905 1126 0
1884 1885 1886 1887 1888 1889 1890 1891 1892 1893 1894 1895 1896 1897 1898 1899 1900 1901 1902 1903 1904 1905 1906 1907 -1126 905 0
1884 1885 1886 1887 1888 1889 1890 1891 1892 1893 1894 1895 1896 1897 1898 1899 1900 1901 1902 1903 1904 1905 1906 1907 -912 1133 0
1884 1885 1886 1887 1888 1889 1890 1891 1892 1893 1894 1895 1896 1897 1898 1899 1900 1901 1902 1903 1904 1905 1906 1907 -1133 912 0
1908 1909 1910 1911 1912 1913 1914 1915 1916 1917 1918 1919 1920 1921 1922 1923 1924 1925 1926 1927 1928 1929 1930 1931 -944 1165 0
1908 1909 1910 1911 1912 1913 1914 1915 1916 1917 1918 1919 1920 1921 1922 1923 1924 1925 1926 1927 1928 1929 1930 1931 -1165 944 0
1908 1909 1910 1911 1912 1913 1914 1915 1916 1917 1918 1919 1920 1921 1922 1923 1924 1925 1926 1927 1928 1929 1930 1931 -945 1166 0
1908 1909 1910 1911 1912 1913 1914 1915 1916 1917 1918 1919 1920 1921 1922 1923 1924 1925 1926 1927 1928 1929 1930 1931 -1166 945 0
1908 1909 1910 1911 1912 1913 1914 1915 1916 1917 1918 1919 1920 1921 1922 1923 1924 1925 1926 1927 1928 1929 1930 1931 -946 1167 0
1908 1909 1910 1911 1912 1913 1914 1915 1916 1917 1918 1919 1920 1921 1922 1923 1924 1925 1926 1927 1928 1929 1930 1931 -1167 946 0
1908 1909 1910 1911 1912 1913 1914 1915 1916 1917 1918 1919 1920 1921 1922 1923 1924 1925 1926 1927 1928 1929 1930 1931 -947 1168 0
1908 1909 1910 1911 1912 1913 1914 1915 1916 1917 1918 1919 1920 1921 1922 1923 1924 1925 1926 1927 1928 1929 1930 1931 -1168 947 0
1908 1909 1910 1911 1912 1913 1914 1915 1916 1917 1918 1919 1920 1921 1922 1923 1924 1925 1926 1927 1928 1929 1930 1931 -948 1169 0
1908 1909 1910 1911 1912 1913 1914 1915 1916 1917 1918 1919 1920 1921 1922 1923 1924 1925 1926 1927 1928 1929 1930 1931 -1169 948 0
1908 1909 1910 1911 1912 1913 1914 1915 1916 1917 1918 1919 1920 1921 1922 1923 1924 1925 1926 1927 1928 1929 1930 1931 -949 1170 0
1908 1909 1910 1911 1912 1913 1914 1915 1916 1917 1918 1919 1920 1921 1922 1923 1924 1925 1926 1927 1928 1929 1930 1931 -1170 949 0
1908 1909 1910 1911 1912 1913 1914 1915 1916 1917 1918 1919 1920 1921 1922 1923 1924 1925 1926 1927 1928 1929 1930 1931 -950 1171 0
1908 1909 1910 1911 1912 1913 1914 1915 1916 1917 1918 1919 1920 1921 1922 1923 1924 1925 1926 1927 1928 1929 1930 1931 -1171 950 0
1908 1909 1910 1911 1912 1913 1914 1915 1916 1917 1918 1919 1920 1921 1922 1923 1924 1925 1926 1927 1928 1929 1930 1931 -957 1178 0
1908 1909 1910 1911 1912 1913 1914 1915 1916 1917 1918 1919 1920 1921 1922 1923 1924 1925 1926 1927 1928 1929 1930 1931 -1178 957 0
1908 1909 1910 1911 1912 1913 1914 1915 1916 1917 1918 1919 1920 1921 1922 1923 1924 1925 1926 1927 1928 1929 1930 1931 -964 1185 0
1908 1909 1910 1911 1912 1913 1914 1915 1916 1917 1918 1919 1920 1921 1922 1923 1924 1925 1926 1927 1928 1929 1930 1931 -1185 964 0
1908 1909 1910 1911 1912 1913 1914 1915 1916 1917 1918 1919 1920 1921 1922 1923 1924 1925 1926 1927 1928 1929 1930 1931 -971 1192 0
1908 1909 1910 1911 1912 1913 1914 1915 1916 1917 1918 1919 1920 1921 1922 1923 1924 1925 1926 1927 1928 1929 1930 1931 -1192 971 0
1932 1933 1934 1935 1936 1937 1938 1939 1940 1941 1942 1943 1944 1945 1946 1947 1948 1949 1950 1951 -1003 1224 0
1932 1933 1934 1935 1936 1937 1938 1939 1940 1941 1942 1943 1944 1945 1946 1947 1948 1949 1950 1951 -1224 1003 0
1932 1933 1934 1935 1936 1937 1938 1939 1940 1941 1942 1943 1944 1945 1946 1947 1948 1949 1950 1951 -1004 1225 0
1932 1933 1934 1935 1936 1937 1938 1939 1940 1941 1942 1943 1944 1945 1946 1947 1948 1949 1950 1951 -1225 1004 0
1932 1933 1934 1935 1936 1937 1938 1939 1940 1941 1942 1943 1944 1945 1946 1947 1948 1949 1950 1951 -1005 1226 0
1932 1933 1934 1935 1936 1937 1938 1939 1940 1941 1942 1943 1944 1945 1946 1947 1948 1949 1950 1951 -1226 1005 0
1932 1933 1934 1935 1936 1937 1938 1939 1940 1941 1942 1943 1944 1945 1946 1947 1948 1949 1950 1951 -1006 1227 0
1932 1933 1934 1935 1936 1937 1938 1939 1940 1941 1942 1943 1944 1945 1946 1947 1948 1949 1950 1951 -1227 1006 0
1932 1933 1934 1935 1936 1937 1938 1939 1940 1941 1942 1943 1944 1945 1946 1947 1948 1949 1950 1951 -1007 1228 0
1932 1933 1934 1935 1936 1937 1938 1939 1940 1941 1942 1943 1944 1945 1946 1947 1948 1949 1950 1951 -1228 1007 0
1932 1933 1934 1935 1936 1937 1938 1939 1940 1941 1942 1943 1944 1945 1946 1947 1948 1949 1950 1951 -1008 1229 0
1932 1933 1934 1935 1936 1937 1938 1939 1940 1941 1942 1943 1944 1945 1946 1947 1948 1949 1950 1951 -1229 1008 0
1932 1933 1934 1935 1936 1937 1938 1939 1940 1941 1942 1943 1944 1945 1946 1947 1948 1949 1950 1951 -1014 1235 0
1932 1933 1934 1935 1936 1937 1938 1939 1940 1941 1942 1943 1944 1945 1946 1947 1948 1949 1950 1951 -1235 1014 0
1932 1933 1934 1935 1936 1937 1938 1939 1940 1941 1942 1943 1944 1945 1946 1947 1948 1949 1950 1951 -1020 1241 0
1932 1933 1934 1935 1936 1937 1938 1939 1940 1941 1942 1943 1944 1945 1946 1947 1948 1949 1950 1951 -1241 1020 0
1932 1933 1934 1935 1936 1937 1938 1939 1940 1941 1942 1943 1944 1945 1946 1947 1948 1949 1950 1951 -1026 1247 0
1932 1933 1934 1935 1936 1937 1938 1939 1940 1941 1942 1943 1944 1945 1946 1947 1948 1949 1950 1951 -1247 1026 0
1952 1953 1954 1955 1956 1957 1958 1959 1960 1961 1962 1963 1964 1965 1966 1967 -1057 1278 0
1952 1953 1954 1955 1956 1957 1958 1959 1960 1961 1962 1963 1964 1965 1966 1967 -1278 1057 0
1952 1953 1954 1955 1956 1957 1958 1959 1960 1961 1962 1963 1964 1965 1966 1967 -1058 1279 0
1952 1953 1954 1955 1956 1957 1958 1959 1960 1961 1962 1963 1964 1965 1966 1967 -1279 1058 0
1952 1953 1954 1955 1956 1957 1958 1959 1960 1961 1962 1963 1964 1965 1966 1967 -1059 1280 0
1952 1953 1954 1955 1956 1957 1958 1959 1960 1961 1962 1963 1964 1965 1966 1967 -1280 1059 0
1952 1953 1954 1955 1956 1957 1958 1959 1960 1961 1962 1963 1964 1965 1966 1967 -1060 1281 0
1952 1953 1954 1955 1956 1957 1958 1959 1960 1961 1962 1963 1964 1965 1966 1967 -1281 1060 0
1952 1953 1954 1955 1956 1957 1958 1959 1960 1961 1962 1963 1964 1965 1966 1967 -1061 1282 0
1952 1953 1954 1955 1956 1957 1958 1959 1960 1961 1962 1963 1964 1965 1966 1967 -1282 1061 0
1952 1953 1954 1955 1956 1957 1958 1959 1960 1961 1962 1963 1964 1965 1966 1967 -1066 1287 0
1952 1953 1954 1955 1956 1957 1958 1959 1960 1961 1962 1963 1964 1965 1966 1967 -1287 1066 0
1952 1953 1954 1955 1956 1957 1958 1959 1960 1961 1962 1963 1964 1965 1966 1967 -1071 1292 0
1952 1953 1954 1955 1956 1957 1958 1959 1960 1961 1962 1963 1964 1965 1966 1967 -1292 1071 0
1952 1953 1954 1955 1956 1957 1958 1959 1960 1961 1962 1963 1964 1965 1966 1967 -1076 1297 0
1952 1953 1954 1955 1956 1957 1958 1959 1960 1961 1962 1963 1964 1965 1966 1967 -1297 1076 0
1968 1969 1970 1971 1972 1973 1974 1975 1976 1977 1978 1979 1980 1981 1982 1983 1984 1985 1986 1987 1988 1989 1990 1991 -1106 1327 0
1968 1969 1970 1971 1972 1973 1974 1975 1976 1977 1978 1979 1980 1981 1982 1983 1984 1985 1986 1987 1988 1989 1990 1991 -1327 1106 0
1968 1969 1970 1971 1972 1973 1974 1975 1976 1977 1978 1979 1980 1981 1982 1983 1984 1985 1986 1987 1988 1989 1990 1991 -1107 1328 0
1968 1969 1970 1971 1972 1973 1974 1975 1976 1977 1978 1979 1980 1981 1982 1983 1984 1985 1986 1987 1988 1989 1990 1991 -1328 1107 0
1968 1969 1970 1971 1972 1973 1974 1975 1976 1977 1978 1979 1980 1981 1982 1983 1984 1985 1986 1987 1988 1989 1990 1991 -1108 1329 0
1968 1969 1970 1971 1972 1973 1974 1975 1976 1977 1978 1979 1980 1981 1982 1983 1984 1985 1986 1987 1988 1989 1990 1991 -1329 1108 0
1968 1969 1970 1971 1972 1973 1974 1975 1976 1977 1978 1979 1980 1981 1982 1983 1984 1985 1986 1987 1988 1989 1990 1991 -1109 1330 0
1968 1969 1970 1971 1972 1973 1974 1975 1976 1977 1978 1979 1980 1981 1982 1983 1984 1985 1986 1987 1988 1989 1990 1991 -1330 1109 0
1968 1969 1970 1971 1972 1973 1974 1975 1976 1977 1978 1979 1980 1981 1982 1983 1984 1985 1986 1987 1988 1989 1990 1991 -1110 1331 0
1968 1969 1970 1971 1972 1973 1974 1975 1976 1977 1978 1979 1980 1981 1982 1983 1984 1985 1986 1987 1988 1989 1990 1991 -1331 1110 0
1968 1969 1970 1971 1972 1973 1974 1975 1976 1977 1978 1979 1980 1981 1982 1983 1984 1985 1986 1987 1988 1989 1990 1991 -1111 1332 0
1968 1969 1970 1971 1972 1973 1974 1975 1976 1977 1978 1979 1980 1981 1982 1983 1984 1985 1986 1987 1988 1989 1990 1991 -1332 1111 0
1968 1969 1970 1971 1972 1973 1974 1975 1976 1977 1978 1979 1980 1981 1982 1983 1984 1985 1986 1987 1988 1989 1990 1991 -1112 1333 0
1968 1969 1970 1971 1972 1973 1974 1975 1976 1977 1978 1979 1980 1981 1982 1983 1984 1985 1986 1987 1988 1989 1990 1991 -1333 1112 0
1968 1969 1970 1971 1972 1973 1974 1975 1976 1977 1978 1979 1980 1981 1982 1983 1984 1985 1986 1987 1988 1989 1990 1991 -1119 1340 0
1968 1969 1970 1971 1972 1973 1974 1975 1976 1977 1978 1979 1980 1981 1982 1983 1984 1985 1986 1987 1988 1989 1990 1991 -1340 1119 0
1968 1969 1970 1971 1972 1973 1974 1975 1976 1977 1978 1979 1980 1981 1982 1983 1984 1985 1986 1987 1988 1989 1990 1991 -1126 1347 0
1968 1969 1970 1971 1972 1973 1974 1975 1976 1977 1978 1979 1980 1981 1982 1983 1984 1985 1986 1987 1988 1989 1990 1991 -1347 1126 0
1968 1969 1970 1971 1972 1973 1974 1975 1976 1977 1978 1979 1980 1981 1982 1983 1984 1985 1986 1987 1988 1989 1990 1991 -1133 1354 0
1968 1969 1970 1971 1972 1973 1974 1975 1976 1977 1978 1979 1980 1981 1982 1983 1984 1985 1986 1987 1988 1989 1990 1991 -1354 1133 0
1992 1993 1994 1995 1996 1997 1998 1999 2000 2001 2002 2003 2004 2005 2006 2007 2008 2009 2010 2011 2012 2013 2014 2015 -1165 1386 0
1992 1993 1994 1995 1996 1997 1998 1999 2000 2001 2002 2003 2004 2005 2006 2007 2008 2009 2010 2011 2012 2013 2014 2015 -1386 1165 0
1992 1993 1994 1995 1996 1997 1998 1999 2000 2001 2002 2003 2004 2005 2006 2007 2008 2009 2010 2011 2012 2013 2014 2015 -1166 1387 0
1992 1993 1994 1995 1996 1997 1998 1999 2000 2001 2002 2003 2004 2005 2006 2007 2008 2009 2010 2011 2012 2013 2014 2015 -1387 1166 0
1992 1993 1994 1995 1996 1997 1998 1999 2000 2001 2002 2003 2004 2005 2006 2007 2008 2009 2010 2011 2012 2013 2014 2015 -1167 1388 0
1992 1993 1994 1995 1996 1997 1998 1999 2000 2001 2002 2003 2004 2005 2006 2007 2008 2009 2010 2011 2012 2013 2014 2015 -1388 1167 0
1992 1993 1994 1995 1996 1997 1998 1999 2000 2001 2002 2003 2004 2005 2006 2007 2008 2009 2010 2011 2012 2013 2014 2015 -1168 1389 0
1992 1993 1994 1995 1996 1997 1998 1999 2000 2001 2002 2003 2004 2005 2006 2007 2008 2009 2010 2011 2012 2013 2014 2015 -1389 1168 0
1992 1993 1994 1995 1996 1997 1998 1999 2000 2001 2002 2003 2004 2005 2006 2007 2008 2009 2010 2011 2012 2013 2014 2015 -1169 1390 0
1992 1993 1994 1995 1996 1997 1998 1999 2000 2001 2002 2003 2004 2005 2006 2007 2008 2009 2010 2011 2012 2013 2014 2015 -1390 1169 0
1992 1993 1994 1995 1996 1997 1998 1999 2000 2001 2002 2003 2004 2005 2006 2007 2008 2009 2010 2011 2012 2013 2014 2015 -1170 1391 0
1992 1993 1994 1995 1996 1997 1998 1999 2000 2001 2002 2003 2004 2005 2006 2007 2008 2009 2010 2011 2012 2013 2014 2015 -1391 1170 0
1992 1993 1994 1995 1996 1997 1998 1999 2000 2001 2002 2003 2004 2005 2006 2007 2008 2009 2010 2011 2012 2013 2014 2015 -1171 1392 0
1992 1993 1994 1995 1996 1997 1998 1999 2000 2001 2002 2003 2004 2005 2006 2007 2008 2009 2010 2011 2012 2013 2014 2015 -1392 1171 0
1992 1993 1994 1995 1996 1997 1998 1999 2000 2001 2002 2003 2004 2005 2006 2007 2008 2009 2010 2011 2012 2013 2014 2015 -1178 1399 0
1992 1993 1994 1995 1996 1997 1998 1999 2000 2001 2002 2003 2004 2005 2006 2007 2008 2009 2010 2011 2012 2013 2014 2015 -1399 1178 0
1992 1993 1994 1995 1996 1997 1998 1999 2000 2001 2002 2003 2004 2005 2006 2007 2008 2009 2010 2011 2012 2013 2014 2015 -1185 1406 0
1992 1993 1994 1995 1996 1997 1998 1999 2000 2001 2002 2003 2004 2005 2006 2007 2008 2009 2010 2011 2012 2013 2014 2015 -1406 1185 0
1992 1993 1994 1995 1996 1997 1998 1999 2000 2001 2002 2003 2004 2005 2006 2007 2008 2009 2010 2011 2012 2013 2014 2015 -1192 1413 0
1992 1993 1994 1995 1996 1997 1998 1999 2000 2001 2002 2003 2004 2005 2006 2007 2008 2009 2010 2011 2012 2013 2014 2015 -1413 1192 0
2016 2017 2018 2019 2020 2021 2022 2023 2024 2025 2026 2027 2028 2029 2030 2031 2032 2033 2034 2035 -1224 1445 0
2016 2017 2018 2019 2020 2021 2022 2023 2024 2025 2026 2027 2028 2029 2030 2031 2032 2033 2034 2035 -1445 1224 0
2016 2017 2018 2019 2020 2021 2022 2023 2024 2025 2026 2027 2028 2029 2030 2031 2032 2033 2034 2035 -1225 1446 0
2016 2017 2018 2019 2020 2021 2022 2023 2024 2025 2026 2027 2028 2029 2030 2031 2032 2033 2034 2035 -1446 1225 0
2016 2017 2018 2019 2020 2021 2022 2023 2024 2025 2026 2027 2028 2029 2030 2031 2032 2033 2034 2035 -1226 1447 0
2016 2017 2018 2019 2020 2021 2022 2023 2024 2025 2026 2027 2028 2029 2030 2031 2032 2033 2034 2035 -1447 1226 0
2016 2017 2018 2019 2020 2021 2022 2023 2024 2025 2026 2027 2028 2029 2030 2031 2032 2033 2034 2035 -1227 1448 0
2016 2017 2018 2019 2020 2021 2022 2023 2024 2025 2026 2027 2028 2029 2030 2031 2032 2033 2034 2035 -1448 1227 0
2016 2017 2018 2019 2020 2021 2022 2023 2024 2025 2026 2027 2028 2029 2030 2031 2032 2033 2034 2035 -1228 1449 0
2016 2017 2018 2019 2020 2021 2022 2023 2024 2025 2026 2027 2028 2029 2030 2031 2032 2033 2034 2035 -1449 1228 0
2016 2017 2018 2019 2020 2021 2022 2023 2024 2025 2026 2027 2028 2029 2030 2031 2032 2033 2034 2035 -1229 1450 0
2016 2017 2018 2019 2020 2021 2022 2023 2024 2025 2026 2027 2028 2029 2030 2031 2032 2033 2034 2035 -1450 1229 0
2016 2017 2018 2019 2020 2021 2022 2023 2024 2025 2026 2027 2028 2029 2030 2031 2032 2033 2034 2035 -1235 1456 0
2016 2017 2018 2019 2020 2021 2022 2023 2024 2025 2026 2027 2028 2029 2030 2031 2032 2033 2034 2035 -1456 1235 0
2016 2017 2018 2019 2020 2021 2022 2023 2024 2025 2026 2027 2028 2029 2030 2031 2032 2033 2034 2035 -1241 1462 0
2016 2017 2018 2019 2020 2021 2022 2023 2024 2025 2026 2027 2028 2029 2030 2031 2032 2033 2034 2035 -1462 1241 0
2016 2017 2018 2019 2020 2021 2022 2023 2024 2025 2026 2027 2028 2029 2030 2031 2032 2033 2034 2035 -1247 1468 0
2016 2017 2018 2019 2020 2021 2022 2023 2024 2025 2026 2027 2028 2029 2030 2031 2032 2033 2034 2035 -1468 1247 0
2036 2037 2038 2039 2040 2041 2042 2043 2044 2045 2046 2047 2048 2049 2050 2051 -1278 1499 0
2036 2037 2038 2039 2040 2041 2042 2043 2044 2045 2046 2047 2048 2049 2050 2051 -1499 1278 0
2036 2037 2038 2039 2040 2041 2042 2043 2044 2045 2046 2047 2048 2049 2050 2051 -1279 1500 0
2036 2037 2038 2039 2040 2041 2042 2043 2044 2045 2046 2047 2048 2049 2050 2051 -1500 1279 0
2036 2037 2038 2039 2040 2041 2042 2043 2044 2045 2046 2047 2048 2049 2050 2051 -1280 1501 0
2036 2037 2038 2039 2040 2041 2042 2043 2044 2045 2046 2047 2048 2049 2050 2051 -1501 1280 0
2036 2037 2038 2039 2040 2041 2042 2043 2044 2045 2046 2047 2048 2049 2050 2051 -1281 1502 0
2036 2037 2038 2039 2040 2041 2042 2043 2044 2045 2046 2047 2048 2049 2050 2051 -1502 1281 0
2036 2037 2038 2039 2040 2041 2042 2043 2044 2045 2046 2047 2048 2049 2050 2051 -1282 1503 0
2036 2037 2038 2039 2040 2041 2042 2043 2044 2045 2046 2047 2048 2049 2050 2051 -1503 1282 0
2036 2037 2038 2039 2040 2041 2042 2043 2044 2045 2046 2047 2048 2049 2050 2051 -1287 1508 0
2036 2037 2038 2039 2040 2041 2042 2043 2044 2045 2046 2047 2048 2049 2050 2051 -1508 1287 0
2036 2037 2038 2039 2040 2041 2042 2043 2044 2045 2046 2047 2048 2049 2050 2051 -1292 1513 0
2036 2037 2038 2039 2040 2041 2042 2043 2044 2045 2046 2047 2048 2049 2050 2051 -1513 1292 0
2036 2037 2038 2039 2040 2041 2042 2043 2044 2045 2046 2047 2048 2049 2050 2051 -1297 1518 0
2036 2037 2038 2039 2040 2041 2042 2043 2044 2045 2046 2047 2048 2049 2050 2051 -1518 1297 0
1548 1549 1550 1551 1552 1553 1554 1555 1556 1557 1558 1559 1560 1561 1562 1563 1564 1565 1566 1567 1568 1569 1570 1571 1572 1573 1574 1575 1576 1577 1578 1579 1580 1581 1582 1583 1584 1585 1586 1587 1588 1589 1590 1591 1592 1593 1594 1595 1596 1597 1598 1599 1600 1601 1602 1603 1604 1605 1606 1607 1608 1609 1610 1611 1612 1613 1614 1615 1616 1617 1618 1619 1620 1621 1622 1623 1624 1625 1626 1627 1628 1629 1630 1631 0
-1548 -1549 0
-1548 -1550 0
-1548 -1551 0
-1548 -1552 0
-1548 -1553 0
-1548 -1554 0
-1548 -1555 0
-1548 -1556 0
-1548 -1557 0
-1548 -1558 0
-1548 -1559 0
-1548 -1560 0
-1548 -1561 0
-1548 -1562 0
-1548 -1563 0
-1548 -1564 0
-1548 -1565 0
-1548 -1566 0
-1548 -1567 0
-1548 -1568 0
-1548 -1569 0
-1548 -1570 0
-1548 -1571 0
-1548 -1572 0
-1548 -1573 0
-1548 -1574 0
-1548 -1575 0
-1548 -1576 0
-1548 -1577 0
-1548 -1578 0
-1548 -1579 0
-1548 -1580 0
-1548 -1581 0
-1548 -1582 0
-1548 -1583 0
-1548 -1584 0
-1548 -1585 0
-1548 -1586 0
-1548 -1587 0
-1548 -1588 0
-1548 -1589 0
-1548 -1590 0
-1548 -1591 0
-1548 -1592 0
-1548 -1593 0
-1548 -1594 0
-1548 -1595 0
-1548 -1596 0
-1548 -1597 0
-1548 -1598 0
-1548 -1599 0
-1548 -1600 0
-1548 -1601 0
-1548 -1602 0
-1548 -1603 0
-1548 -1604 0
-1548 -1605 0
-1548 -1606 0
-1548 -1607 0
-1548 -1608 0
-1548 -1609 0
-1548 -1610 0
-1548 -1611 0
-1548 -1612 0
-1548 -1613 0
-1548 -1614 0
-1548 -1615 0
-1548 -1616 0
-1548 -1617 0
-1548 -1618 0
-1548 -1619 0
-1548 -1620 0
-1548 -1621 0
-1548 -1622 0
-1548 -1623 0
-1548 -1624 0
-1548 -1625 0
-1548 -1626 0
-1548 -1627 0
-1548 -1628 0
-1548 -1629 0
-1548 -1630 0
-1548 -1631 0
-1549 -1550 0
-1549 -1551 0
-1549 -1552 0
-1549 -1553 0
-1549 -1554 0
-1549 -1555 0
-1549 -1556 0
-1549 -1557 0
-1549 -1558 0
-1549 -1559 0
-1549 -1560 0
-1549 -1561 0
-1549 -1562 0
-1549 -1563 0
-1549 -1564 0
-1549 -1565 0
-1549 -1566 0
-1549 -1567 0
-1549 -1568 0
-1549 -1569 0
-1549 -1570 0
-1549 -1571 0
-1549 -1572 0
-1549 -1573 0
-1549 -1574 0
-1549 -1575 0
-1549 -1576 0
-1549 -1577 0
-1549 -1578 0
-1549 -1579 0
-1549 -1580 0
-1549 -1581 0
-1549 -1582 0
-1549 -1583 0
-1549 -1584 0
-1549 -1585 0
-1549 -1586 0
-1549 -1587 0
-1549 -1588 0
-1549 -1589 0
-1549 -1590 0
-1549 -1591 0
-1549 -1592 0
-1549 -1593 0
-1549 -1594 0
-1549 -1595 0
-1549 -1596 0
-1549 -1597 0
-1549 -1598 0
-1549 -1599 0
-1549 -1600 0
-1549 -1601 0
-1549 -1602 0
-1549 -1603 0
-1549 -1604 0
-1549 -1605 0
-1549 -1606 0
-1549 -1607 0
-1549 -1608 0
-1549 -1609 0
-1549 -1610 0
-1549 -1611 0
-1549 -1612 0
-1549 -1613 0
-1549 -1614 0
-1549 -1615 0
-1549 -1616 0
-1549 -1617 0
-1549 -1618 0
-1549 -1619 0
-1549 -1620 0
-1549 -1621 0
-1549 -1622 0
-1549 -1623 0
-1549 -1624 0
-1549 -1625 0
-1549 -1626 0
-1549 -1627 0
-1549 -1628 0
-1549 -1629 0
-1549 -1630 0
-1549 -1631 0
-1550 -1551 0
-1550 -1552 0
-1550 -1553 0
-1550 -1554 0
-1550 -1555 0
-1550 -1556 0
-1550 -1557 0
-1550 -1558 0
-1550 -1559 0
-1550 -1560 0
-1550 -1561 0
-1550 -1562 0
-1550 -1563 0
-1550 -1564 0
-1550 -1565 0
-1550 -1566 0
-1550 -1567 0
-1550 -1568 0
-1550 -1569 0
-1550 -1570 0
-1550 -1571 0
-1550 -1572 0
-1550 -1573 0
-1550 -1574 0
-1550 -1575 0
-1550 -1576 0
-1550 -1577 0
-1550 -1578 0
-1550 -1579 0
-1550 -1580 0
-1550 -1581 0
-1550 -1582 0
-1550 -1583 0
-1550 -1584 0
-1550 -1585 0
-1550 -1586 0
-1550 -1587 0
-1550 -1588 0
-1550 -1589 0
-1550 -1590 0
-1550 -1591 0
-1550 -1592 0
-1550 -1593 0
-1550 -1594 0
-1550 -1595 0
-1550 -1596 0
-1550 -1597 0
-1550 -1598 0
-1550 -1599 0
-1550 -1600 0
-1550 -1601 0
-1550 -1602 0
-1550 -1603 0
-1550 -1604 0
-1550 -1605 0
-1550 -1606 0
-1550 -1607 0
-1550 -1608 0
-1550 -1609 0
-1550 -1610 0
-1550 -1611 0
-1550 -1612 0
-1550 -1613 0
-1550 -1614 0
-1550 -1615 0
-1550 -1616 0
-1550 -1617 0
-1550 -1618 0
-1550 -1619 0
-1550 -1620 0
-1550 -1621 0
-1550 -1622 0
-1550 -1623 0
-1550 -1624 0
-1550 -1625 0
-1550 -1626 0
-1550 -1627 0
-1550 -1628 0
-1550 -1629 0
-1550 -1630 0
-1550 -1631 0
-1551 -1552 0
-1551 -1553 0
-1551 -1554 0
-1551 -1555 0
-1551 -1556 0
-1551 -1557 0
-1551 -1558 0
-1551 -1559 0
-1551 -1560 0
-1551 -1561 0
-1551 -1562 0
-1551 -1563 0
-1551 -1564 0
-1551 -1565 0
-1551 -1566 0
-1551 -1567 0
-1551 -1568 0
-1551 -1569 0
-1551 -1570 0
-1551 -1571 0
-1551 -1572 0
-1551 -1573 0
-1551 -1574 0
-1551 -1575 0
-1551 -1576 0
-1551 -1577 0
-1551 -1578 0
-1551 -1579 0
-1551 -1580 0
-1551 -1581 0
-1551 -1582 0
-1551 -1583 0
-1551 -1584 0
-1551 -1585 0
-1551 -1586 0
-1551 -1587 0
-1551 -1588 0
-1551 -1589 0
-1551 -1590 0
-1551 -1591 0
-1551 -1592 0
-1551 -1593 0
-1551 -1594 0
-1551 -1595 0
-1551 -1596 0
-1551 -1597 0
-1551 -1598 0
-1551 -1599 0
-1551 -1600 0
-1551 -1601 0
-1551 -1602 0
-1551 -1603 0
-1551 -1604 0
-1551 -1605 0
-1551 -1606 0
-1551 -1607 0
-1551 -1608 0
-1551 -1609 0
-1551 -1610 0
-1551 -1611 0
-1551 -1612 0
-1551 -1613 0
-1551 -1614 0
-1551 -1615 0
-1551 -1616 0
-1551 -1617 0
-1551 -1618 0
-1551 -1619 0
-1551 -1620 0
-1551 -1621 0
-1551 -1622 0
-1551 -1623 0
-1551 -1624 0
-1551 -1625 0
-1551 -1626 0
-1551 -1627 0
-1551 -1628 0
-1551 -1629 0
-1551 -1630 0
-1551 -1631 0
-1552 -1553 0
-1552 -1554 0
-1552 -1555 0
-1552 -1556 0
-1552 -1557 0
-1552 -1558 0
-1552 -1559 0
-1552 -1560 0
-1552 -1561 0
-1552 -1562 0
-1552 -1563 0
-1552 -1564 0
-1552 -1565 0
-1552 -1566 0
-1552 -1567 0
-1552 -1568 0
-1552 -1569 0
-1552 -1570 0
-1552 -1571 0
-1552 -1572 0
-1552 -1573 0
-1552 -1574 0
-1552 -1575 0
-1552 -1576 0
-1552 -1577 0
-1552 -1578 0
-1552 -1579 0
-1552 -1580 0
-1552 -1581 0
-1552 -1582 0
-1552 -1583 0
-1552 -1584 0
-1552 -1585 0
-1552 -1586 0
-1552 -1587 0
-1552 -1588 0
-1552 -1589 0
-1552 -1590 0
-1552 -1591 0
-1552 -1592 0
-1552 -1593 0
-1552 -1594 0
-1552 -1595 0
-1552 -1596 0
-1552 -1597 0
-1552 -1598 0
-1552 -1599 0
-1552 -1600 0
-1552 -1601 0
-1552 -1602 0
-1552 -1603 0
-1552 -1604 0
-1552 -1605 0
-1552 -1606 0
-1552 -1607 0
-1552 -1608 0
-1552 -1609 0
-1552 -1610 0
-1552 -1611 0
-1552 -1612 0
-1552 -1613 0
-1552 -1614 0
-1552 -1615 0
-1552 -1616 0
-1552 -1617 0
-1552 -1618 0
-1552 -1619 0
-1552 -1620 0
-1552 -1621 0
-1552 -1622 0
-1552 -1623 0
-1552 -1624 0
-1552 -1625 0
-1552 -1626 0
-1552 -1627 0
-1552 -1628 0
-1552 -1629 0
-1552 -1630 0
-1552 -1631 0
-1553 -1554 0
-1553 -1555 0
-1553 -1556 0
-1553 -1557 0
-1553 -1558 0
-1553 -1559 0
-1553 -1560 0
-1553 -1561 0
-1553 -1562 0
-1553 -1563 0
-1553 -1564 0
-1553 -1565 0
-1553 -1566 0
-1553 -1567 0
-1553 -1568 0
-1553 -1569 0
-1553 -1570 0
-1553 -1571 0
-1553 -1572 0
-1553 -1573 0
-1553 -1574 0
-1553 -1575 0
-1553 -1576 0
-1553 -1577 0
-1553 -1578 0
-1553 -1579 0
-1553 -1580 0
-1553 -1581 0
-1553 -1582 0
-1553 -1583 0
-1553 -1584 0
-1553 -1585 0
-1553 -1586 0
-1553 -1587 0
-1553 -1588 0
-1553 -1589 0
-1553 -1590 0
-1553 -1591 0
-1553 -1592 0
-1553 -1593 0
-1553 -1594 0
-1553 -1595 0
-1553 -1596 0
-1553 -1597 0
-1553 -1598 0
-1553 -1599 0
-1553 -1600 0
-1553 -1601 0
-1553 -1602 0
-1553 -1603 0
-1553 -1604 0
-1553 -1605 0
-1553 -1606 0
-1553 -1607 0
-1553 -1608 0
-1553 -1609 0
-1553 -1610 0
-1553 -1611 0
-1553 -1612 0
-1553 -1613 0
-1553 -1614 0
-1553 -1615 0
-1553 -1616 0
-1553 -1617 0
-1553 -1618 0
-1553 -1619 0
-1553 -1620 0
-1553 -1621 0
-1553 -1622 0
-1553 -1623 0
-1553 -1624 0
-1553 -1625 0
-1553 -1626 0
-1553 -1627 0
-1553 -1628 0
-1553 -1629 0
-1553 -1630 0
-1553 -1631 0
-1554 -1555 0
-1554 -1556 0
-1554 -1557 0
-1554 -1558 0
-1554 -1559 0
-1554 -1560 0
-1554 -1561 0
-1554 -1562 0
-1554 -1563 0
-1554 -1564 0
-1554 -1565 0
-1554 -1566 0
-1554 -1567 0
-1554 -1568 0
-1554 -1569 0
-1554 -1570 0
-1554 -1571 0
-1554 -1572 0
-1554 -1573 0
-1554 -1574 0
-1554 -1575 0
-1554 -1576 0
-1554 -1577 0
-1554 -1578 0
-1554 -1579 0
-1554 -1580 0
-1554 -1581 0
-1554 -1582 0
-1554 -1583 0
-1554 -1584 0
-1554 -1585 0
-1554 -1586 0
-1554 -1587 0
-1554 -1588 0
-1554 -1589 0
-1554 -1590 0
-1554 -1591 0
-1554 -1592 0
-1554 -1593 0
-1554 -1594 0
-1554 -1595 0
-1554 -1596 0
-1554 -1597 0
-1554 -1598 0
-1554 -1599 0
-1554 -1600 0
-1554 -1601 0
-1554 -1602 0
-1554 -1603 0
-1554 -1604 0
-1554 -1605 0
-1554 -1606 0
-1554 -1607 0
-1554 -1608 0
-1554 -1609 0
-1554 -1610 0
-1554 -1611 0
-1554 -1612 0
-1554 -1613 0
-1554 -1614 0
-1554 -1615 0
-1554 -1616 0
-1554 -1617 0
-1554 -1618 0
-1554 -1619 0
-1554 -1620 0
-1554 -1621 0
-1554 -1622 0
-1554 -1623 0
-1554 -1624 0
-1554 -1625 0
-1554 -1626 0
-1554 -1627 0
-1554 -1628 0
-1554 -1629 0
-1554 -1630 0
-1554 -1631 0
-1555 -1556 0
-1555 -1557 0
-1555 -1558 0
-1555 -1559 0
-1555 -1560 0
-1555 -1561 0
-1555 -1562 0
-1555 -1563 0
-1555 -1564 0
-1555 -1565 0
-1555 -1566 0
-1555 -1567 0
-1555 -1568 0
-1555 -1569 0
-1555 -1570 0
-1555 -1571 0
-1555 -1572 0
-1555 -1573 0
-1555 -1574 0
-1555 -1575 0
-1555 -1576 0
-1555 -1577 0
-1555 -1578 0
-1555 -1579 0
-1555 -1580 0
-1555 -1581 0
-1555 -1582 0
-1555 -1583 0
-1555 -1584 0
-1555 -1585 0
-1555 -1586 0
-1555 -1587 0
-1555 -1588 0
-1555 -1589 0
-1555 -1590 0
-1555 -1591 0
-1555 -1592 0
-1555 -1593 0
-1555 -1594 0
-1555 -1595 0
-1555 -1596 0
-1555 -1597 0
-1555 -1598 0
-1555 -1599 0
-1555 -1600 0
-1555 -1601 0
-1555 -1602 0
-1555 -1603 0
-1555 -1604 0
-1555 -1605 0
-1555 -1606 0
-1555 -1607 0
-1555 -1608 0
-1555 -1609 0
-1555 -1610 0
-1555 -1611 0
-1555 -1612 0
-1555 -1613 0
-1555 -1614 0
-1555 -1615 0
-1555 -1616 0
-1555 -1617 0
-1555 -1618 0
-1555 -1619 0
-1555 -1620 0
-1555 -1621 0
-1555 -1622 0
-1555 -1623 0
-1555 -1624 0
-1555 -1625 0
-1555 -1626 0
-1555 -1627 0
-1555 -1628 0
-1555 -1629 0
-1555 -1630 0
-1555 -1631 0
-1556 -1557 0
-1556 -1558 0
-1556 -1559 0
-1556 -1560 0
-1556 -1561 0
-1556 -1562 0
-1556 -1563 0
-1556 -1564 0
-1556 -1565 0
-1556 -1566 0
-1556 -1567 0
-1556 -1568 0
-1556 -1569 0
-1556 -1570 0
-1556 -1571 0
-1556 -1572 0
-1556 -1573 0
-1556 -1574 0
-1556 -1575 0
-1556 -1576 0
-1556 -1577 0
-1556 -1578 0
-1556 -1579 0
-1556 -1580 0
-1556 -1581 0
-1556 -1582 0
-1556 -1583 0
-1556 -1584 0
-1556 -1585 0
-1556 -1586 0
-1556 -1587 0
-1556 -1588 0
-1556 -1589 0
-1556 -1590 0
-1556 -1591 0
-1556 -1592 0
-1556 -1593 0
-1556 -1594 0
-1556 -1595 0
-1556 -1596 0
-1556 -1597 0
-1556 -1598 0
-1556 -1599 0
-1556 -1600 0
-1556 -1601 0
-1556 -1602 0
-1556 -1603 0
-1556 -1604 0
-1556 -1605 0
-1556 -1606 0
-1556 -1607 0
-1556 -1608 0
-1556 -1609 0
-1556 -1610 0
-1556 -1611 0
-1556 -1612 0
-1556 -1613 0
-1556 -1614 0
-1556 -1615 0
-1556 -1616 0
-1556 -1617 0
-1556 -1618 0
-1556 -1619 0
-1556 -1620 0
-1556 -1621 0
-1556 -1622 0
-1556 -1623 0
-1556 -1624 0
-1556 -1625 0
-1556 -1626 0
-1556 -1627 0
-1556 -1628 0
-1556 -1629 0
-1556 -1630 0
-1556 -1631 0
-1557 -1558 0
-1557 -1559 0
-1557 -1560 0
-1557 -1561 0
-1557 -1562 0
-1557 -1563 0
-1557 -1564 0
-1557 -1565 0
-1557 -1566 0
-1557 -1567 0
-1557 -1568 0
-1557 -1569 0
-1557 -1570 0
-1557 -1571 0
-1557 -1572 0
-1557 -1573 0
-1557 -1574 0
-1557 -1575 0
-1557 -1576 0
-1557 -1577 0
-1557 -1578 0
-1557 -1579 0
-1557 -1580 0
-1557 -1581 0
-1557 -1582 0
-1557 -1583 0
-1557 -1584 0
-1557 -1585 0
-1557 -1586 0
-1557 -1587 0
-1557 -1588 0
-1557 -1589 0
-1557 -1590 0
-1557 -1591 0
-1557 -1592 0
-1557 -1593 0
-1557 -1594 0
-1557 -1595 0
-1557 -1596 0
-1557 -1597 0
-1557 -1598 0
-1557 -1599 0
-1557 -1600 0
-1557 -1601 0
-1557 -1602 0
-1557 -1603 0
-1557 -1604 0
-1557 -1605 0
-1557 -1606 0
-1557 -1607 0
-1557 -1608 0
-1557 -1609 0
-1557 -1610 0
-1557 -1611 0
-1557 -1612 0
-1557 -1613 0
-1557 -1614 0
-1557 -1615 0
-1557 -1616 0
-1557 -1617 0
-1557 -1618 0
-1557 -1619 0
-1557 -1620 0
-1557 -1621 0
-1557 -1622 0
-1557 -1623 0
-1557 -1624 0
-1557 -1625 0
-1557 -1626 0
-1557 -1627 0
-1557 -1628 0
-1557 -1629 0
-1557 -1630 0
-1557 -1631 0
-1558 -1559 0
-1558 -1560 0
-1558 -1561 0
-1558 -1562 0
-1558 -1563 0
-1558 -1564 0
-1558 -1565 0
-1558 -1566 0
-1558 -1567 0
-1558 -1568 0
-1558 -1569 0
-1558 -1570 0
-1558 -1571 0
-1558 -1572 0
-1558 -1573 0
-1558 -1574 0
-1558 -1575 0
-1558 -1576 0
-1558 -1577 0
-1558 -1578 0
-1558 -1579 0
-1558 -1580 0
-1558 -1581 0
-1558 -1582 0
-1558 -1583 0
-1558 -1584 0
-1558 -1585 0
-1558 -1586 0
-1558 -1587 0
-1558 -1588 0
-1558 -1589 0
-1558 -1590 0
-1558 -1591 0
-1558 -1592 0
-1558 -1593 0
-1558 -1594 0
-1558 -1595 0
-1558 -1596 0
-1558 -1597 0
-1558 -1598 0
-1558 -1599 0
-1558 -1600 0
-1558 -1601 0
-1558 -1602 0
-1558 -1603 0
-1558 -1604 0
-1558 -1605 0
-1558 -1606 0
-1558 -1607 0
-1558 -1608 0
-1558 -1609 0
-1558 -1610 0
-1558 -1611 0
-1558 -1612 0
-1558 -1613 0
-1558 -1614 0
-1558 -1615 0
-1558 -1616 0
-1558 -1617 0
-1558 -1618 0
-1558 -1619 0
-1558 -1620 0
-1558 -1621 0
-1558 -1622 0
-1558 -1623 0
-1558 -1624 0
-1558 -1625 0
-1558 -1626 0
-1558 -1627 0
-1558 -1628 0
-1558 -1629 0
-1558 -1630 0
-1558 -1631 0
-1559 -1560 0
-1559 -1561 0
-1559 -1562 0
-1559 -1563 0
-1559 -1564 0
-1559 -1565 0
-1559 -1566 0
-1559 -1567 0
-1559 -1568 0
-1559 -1569 0
-1559 -1570 0
-1559 -1571 0
-1559 -1572 0
-1559 -1573 0
-1559 -1574 0
-1559 -1575 0
-1559 -1576 0
-1559 -1577 0
-1559 -1578 0
-1559 -1579 0
-1559 -1580 0
-1559 -1581 0
-1559 -1582 0
-1559 -1583 0
-1559 -1584 0
-1559 -1585 0
-1559 -1586 0
-1559 -1587 0
-1559 -1588 0
-1559 -1589 0
-1559 -1590 0
-1559 -1591 0
-1559 -1592 0
-1559 -1593 0
-1559 -1594 0
-1559 -1595 0
-1559 -1596 0
-1559 -1597 0
-1559 -1598 0
-1559 -1599 0
-1559 -1600 0
-1559 -1601 0
-1559 -1602 0
-1559 -1603 0
-1559 -1604 0
-1559 -1605 0
-1559 -1606 0
-1559 -1607 0
-1559 -1608 0
-1559 -1609 0
-1559 -1610 0
-1559 -1611 0
-1559 -1612 0
-1559 -1613 0
-1559 -1614 0
-1559 -1615 0
-1559 -1616 0
-1559 -1617 0
-1559 -1618 0
-1559 -1619 0
-1559 -1620 0
-1559 -1621 0
-1559 -1622 0
-1559 -1623 0
-1559 -1624 0
-1559 -1625 0
-1559 -1626 0
-1559 -1627 0
-1559 -1628 0
-1559 -1629 0
-1559 -1630 0
-1559 -1631 0
-1560 -1561 0
-1560 -1562 0
-1560 -1563 0
-1560 -1564 0
-1560 -1565 0
-1560 -1566 0
-1560 -1567 0
-1560 -1568 0
-1560 -1569 0
-1560 -1570 0
-1560 -1571 0
-1560 -1572 0
-1560 -1573 0
-1560 -1574 0
-1560 -1575 0
-1560 -1576 0
-1560 -1577 0
-1560 -1578 0
-1560 -1579 0
-1560 -1580 0
-1560 -1581 0
-1560 -1582 0
-1560 -1583 0
-1560 -1584 0
-1560 -1585 0
-1560 -1586 0
-1560 -1587 0
-1560 -1588 0
-1560 -1589 0
-1560 -1590 0
-1560 -1591 0
-1560 -1592 0
-1560 -1593 0
-1560 -1594 0
-1560 -1595 0
-1560 -1596 0
-1560 -1597 0
-1560 -1598 0
-1560 -1599 0
-1560 -1600 0
-1560 -1601 0
-1560 -1602 0
-1560 -1603 0
-1560 -1604 0
-1560 -1605 0
-1560 -1606 0
-1560 -1607 0
-1560 -1608 0
-1560 -1609 0
-1560 -1610 0
-1560 -1611 0
-1560 -1612 0
-1560 -1613 0
-1560 -1614 0
-1560 -1615 0
-1560 -1616 0
-1560 -1617 0
-1560 -1618 0
-1560 -1619 0
-1560 -1620 0
-1560 -1621 0
-1560 -1622 0
-1560 -1623 0
-1560 -1624 0
-1560 -1625 0
-1560 -1626 0
-1560 -1627 0
-1560 -1628 0
-1560 -1629 0
-1560 -1630 0
-1560 -1631 0
-1561 -1562 0
-1561 -1563 0
-1561 -1564 0
-1561 -1565 0
-1561 -1566 0
-1561 -1567 0
-1561 -1568 0
-1561 -1569 0
-1561 -1570 0
-1561 -1571 0
-1561 -1572 0
-1561 -1573 0
-1561 -1574 0
-1561 -1575 0
-1561 -1576 0
-1561 -1577 0
-1561 -1578 0
-1561 -1579 0
-1561 -1580 0
-1561 -1581 0
-1561 -1582 0
-1561 -1583 0
-1561 -1584 0
-1561 -1585 0
-1561 -1586 0
-1561 -1587 0
-1561 -1588 0
-1561 -1589 0
-1561 -1590 0
-1561 -1591 0
-1561 -1592 0
-1561 -1593 0
-1561 -1594 0
-1561 -1595 0
-1561 -1596 0
-1561 -1597 0
-1561 -1598 0
-1561 -1599 0
-1561 -1600 0
-1561 -1601 0
-1561 -1602 0
-1561 -1603 0
-1561 -1604 0
-1561 -1605 0
-1561 -1606 0
-1561 -1607 0
-1561 -1608 0
-1561 -1609 0
-1561 -1610 0
-1561 -1611 0
-1561 -1612 0
-1561 -1613 0
-1561 -1614 0
-1561 -1615 0
-1561 -1616 0
-1561 -1617 0
-1561 -1618 0
-1561 -1619 0
-1561 -1620 0
-1561 -1621 0
-1561 -1622 0
-1561 -1623 0
-1561 -1624 0
-1561 -1625 0
-1561 -1626 0
-1561 -1627 0
-1561 -1628 0
-1561 -1629 0
-1561 -1630 0
-1561 -1631 0
-1562 -1563 0
-1562 -1564 0
-1562 -1565 0
-1562 -1566 0
-1562 -1567 0
-1562 -1568 0
-1562 -1569 0
-1562 -1570 0
-1562 -1571 0
-1562 -1572 0
-1562 -1573 0
-1562 -1574 0
-1562 -1575 0
-1562 -1576 0
-1562 -1577 0
-1562 -1578 0
-1562 -1579 0
-1562 -1580 0
-1562 -1581 0
-1562 -1582 0
-1562 -1583 0
-1562 -1584 0
-1562 -1585 0
-1562 -1586 0
-1562 -1587 0
-1562 -1588 0
-1562 -1589 0
-1562 -1590 0
-1562 -1591 0
-1562 -1592 0
-1562 -1593 0
-1562 -1594 0
-1562 -1595 0
-1562 -1596 0
-1562 -1597 0
-1562 -1598 0
-1562 -1599 0
-1562 -1600 0
-1562 -1601 0
-1562 -1602 0
-1562 -1603 0
-1562 -1604 0
-1562 -1605 0
-1562 -1606 0
-1562 -1607 0
-1562 -1608 0
-1562 -1609 0
-1562 -1610 0
-1562 -1611 0
-1562 -1612 0
-1562 -1613 0
-1562 -1614 0
-1562 -1615 0
-1562 -1616 0
-1562 -1617 0
-1562 -1618 0
-1562 -1619 0
-1562 -1620 0
-1562 -1621 0
-1562 -1622 0
-1562 -1623 0
-1562 -1624 0
-1562 -1625 0
-1562 -1626 0
-1562 -1627 0
-1562 -1628 0
-1562 -1629 0
-1562 -1630 0
-1562 -1631 0
-1563 -1564 0
-1563 -1565 0
-1563 -1566 0
-1563 -1567 0
-1563 -1568 0
-1563 -1569 0
-1563 -1570 0
-1563 -1571 0
-1563 -1572 0
-1563 -1573 0
-1563 -1574 0
-1563 -1575 0
-1563 -1576 0
-1563 -1577 0
-1563 -1578 0
-1563 -1579 0
-1563 -1580 0
-1563 -1581 0
-1563 -1582 0
-1563 -1583 0
-1563 -1584 0
-1563 -1585 0
-1563 -1586 0
-1563 -1587 0
-1563 -1588 0
-1563 -1589 0
-1563 -1590 0
-1563 -1591 0
-1563 -1592 0
-1563 -1593 0
-1563 -1594 0
-1563 -1595 0
-1563 -1596 0
-1563 -1597 0
-1563 -1598 0
-1563 -1599 0
-1563 -1600 0
-1563 -1601 0
-1563 -1602 0
-1563 -1603 0
-1563 -1604 0
-1563 -1605 0
-1563 -1606 0
-1563 -1607 0
-1563 -1608 0
-1563 -1609 0
-1563 -1610 0
-1563 -1611 0
-1563 -1612 0
-1563 -1613 0
-1563 -1614 0
-1563 -1615 0
-1563 -1616 0
-1563 -1617 0
-1563 -1618 0
-1563 -1619 0
-1563 -1620 0
-1563 -1621 0
-1563 -1622 0
-1563 -1623 0
-1563 -1624 0
-1563 -1625 0
-1563 -1626 0
-1563 -1627 0
-1563 -1628 0
-1563 -1629 0
-1563 -1630 0
-1563 -1631 0
-1564 -1565 0
-1564 -1566 0
-1564 -1567 0
-1564 -1568 0
-1564 -1569 0
-1564 -1570 0
-1564 -1571 0
-1564 -1572 0
-1564 -1573 0
-1564 -1574 0
-1564 -1575 0
-1564 -1576 0
-1564 -1577 0
-1564 -1578 0
-1564 -1579 0
-1564 -1580 0
-1564 -1581 0
-1564 -1582 0
-1564 -1583 0
-1564 -1584 0
-1564 -1585 0
-1564 -1586 0
-1564 -1587 0
-1564 -1588 0
-1564 -1589 0
-1564 -1590 0
-1564 -1591 0
-1564 -1592 0
-1564 -1593 0
-1564 -1594 0
-1564 -1595 0
-1564 -1596 0
-1564 -1597 0
-1564 -1598 0
-1564 -1599 0
-1564 -1600 0
-1564 -1601 0
-1564 -1602 0
-1564 -1603 0
-1564 -1604 0
-1564 -1605 0
-1564 -1606 0
-1564 -1607 0
-1564 -1608 0
-1564 -1609 0
-1564 -1610 0
-1564 -1611 0
-1564 -1612 0
-1564 -1613 0
-1564 -1614 0
-1564 -1615 0
-1564 -1616 0
-1564 -1617 0
-1564 -1618 0
-1564 -1619 0
-1564 -1620 0
-1564 -1621 0
-1564 -1622 0
-1564 -1623 0
-1564 -1624 0
-1564 -1625 0
-1564 -1626 0
-1564 -1627 0
-1564 -1628 0
-1564 -1629 0
-1564 -1630 0
-1564 -1631 0
-1565 -1566 0
-1565 -1567 0
-1565 -1568 0
-1565 -1569 0
-1565 -1570 0
-1565 -1571 0
-1565 -1572 0
-1565 -1573 0
-1565 -1574 0
-1565 -1575 0
-1565 -1576 0
-1565 -1577 0
-1565 -1578 0
-1565 -1579 0
-1565 -1580 0
-1565 -1581 0
-1565 -1582 0
-1565 -1583 0
-1565 -1584 0
-1565 -1585 0
-1565 -1586 0
-1565 -1587 0
-1565 -1588 0
-1565 -1589 0
-1565 -1590 0
-1565 -1591 0
-1565 -1592 0
-1565 -1593 0
-1565 -1594 0
-1565 -1595 0
-1565 -1596 0
-1565 -1597 0
-1565 -1598 0
-1565 -1599 0
-1565 -1600 0
-1565 -1601 0
-1565 -1602 0
-1565 -1603 0
-1565 -1604 0
-1565 -1605 0
-1565 -1606 0
-1565 -1607 0
-1565 -1608 0
-1565 -1609 0
-1565 -1610 0
-1565 -1611 0
-1565 -1612 0
-1565 -1613 0
-1565 -1614 0
-1565 -1615 0
-1565 -1616 0
-1565 -1617 0
-1565 -1618 0
-1565 -1619 0
-1565 -1620 0
-1565 -1621 0
-1565 -1622 0
-1565 -1623 0
-1565 -1624 0
-1565 -1625 0
-1565 -1626 0
-1565 -1627 0
-1565 -1628 0
-1565 -1629 0
-1565 -1630 0
-1565 -1631 0
-1566 -1567 0
-1566 -1568 0
-1566 -1569 0
-1566 -1570 0
-1566 -1571 0
-1566 -1572 0
-1566 -1573 0
-1566 -1574 0
-1566 -1575 0
-1566 -1576 0
-1566 -1577 0
-1566 -1578 0
-1566 -1579 0
-1566 -1580 0
-1566 -1581 0
-1566 -1582 0
-1566 -1583 0
-1566 -1584 0
-1566 -1585 0
-1566 -1586 0
-1566 -1587 0
-1566 -1588 0
-1566 -1589 0
-1566 -1590 0
-1566 -1591 0
-1566 -1592 0
-1566 -1593 0
-1566 -1594 0
-1566 -1595 0
-1566 -1596 0
-1566 -1597 0
-1566 -1598 0
-1566 -1599 0
-1566 -1600 0
-1566 -1601 0
-1566 -1602 0
-1566 -1603 0
-1566 -1604 0
-1566 -1605 0
-1566 -1606 0
-1566 -1607 0
-1566 -1608 0
-1566 -1609 0
-1566 -1610 0
-1566 -1611 0
-1566 -1612 0
-1566 -1613 0
-1566 -1614 0
-1566 -1615 0
-1566 -1616 0
-1566 -1617 0
-1566 -1618 0
-1566 -1619 0
-1566 -1620 0
-1566 -1621 0
-1566 -1622 0
-1566 -1623 0
-1566 -1624 0
-1566 -1625 0
-1566 -1626 0
-1566 -1627 0
-1566 -1628 0
-1566 -1629 0
-1566 -1630 0
-1566 -1631 0
-1567 -1568 0
-1567 -1569 0
-1567 -1570 0
-1567 -1571 0
-1567 -1572 0
-1567 -1573 0
-1567 -1574 0
-1567 -1575 0
-1567 -1576 0
-1567 -1577 0
-1567 -1578 0
-1567 -1579 0
-1567 -1580 0
-1567 -1581 0
-1567 -1582 0
-1567 -1583 0
-1567 -1584 0
-1567 -1585 0
-1567 -1586 0
-1567 -1587 0
-1567 -1588 0
-1567 -1589 0
-1567 -1590 0
-1567 -1591 0
-1567 -1592 0
-1567 -1593 0
-1567 -1594 0
-1567 -1595 0
-1567 -1596 0
-1567 -1597 0
-1567 -1598 0
-1567 -1599 0
-1567 -1600 0
-1567 -1601 0
-1567 -1602 0
-1567 -1603 0
-1567 -1604 0
-1567 -1605 0
-1567 -1606 0
-1567 -1607 0
-1567 -1608 0
-1567 -1609 0
-1567 -1610 0
-1567 -1611 0
-1567 -1612 0
-1567 -1613 0
-1567 -1614 0
-1567 -1615 0
-1567 -1616 0
-1567 -1617 0
-1567 -1618 0
-1567 -1619 0
-1567 -1620 0
-1567 -1621 0
-1567 -1622 0
-1567 -1623 0
-1567 -1624 0
-1567 -1625 0
-1567 -1626 0
-1567 -1627 0
-1567 -1628 0
-1567 -1629 0
-1567 -1630 0
-1567 -1631 0
-1568 -1569 0
-1568 -1570 0
-1568 -1571 0
-1568 -1572 0
-1568 -1573 0
-1568 -1574 0
-1568 -1575 0
-1568 -1576 0
-1568 -1577 0
-1568 -1578 0
-1568 -1579 0
-1568 -1580 0
-1568 -1581 0
-1568 -1582 0
-1568 -1583 0
-1568 -1584 0
-1568 -1585 0
-1568 -1586 0
-1568 -1587 0
-1568 -1588 0
-1568 -1589 0
-1568 -1590 0
-1568 -1591 0
-1568 -1592 0
-1568 -1593 0
-1568 -1594 0
-1568 -1595 0
-1568 -1596 0
-1568 -1597 0
-1568 -1598 0
-1568 -1599 0
-1568 -1600 0
-1568 -1601 0
-1568 -1602 0
-1568 -1603 0
-1568 -1604 0
-1568 -1605 0
-1568 -1606 0
-1568 -1607 0
-1568 -1608 0
-1568 -1609 0
-1568 -1610 0
-1568 -1611 0
-1568 -1612 0
-1568 -1613 0
-1568 -1614 0
-1568 -1615 0
-1568 -1616 0
-1568 -1617 0
-1568 -1618 0
-1568 -1619 0
-1568 -1620 0
-1568 -1621 0
-1568 -1622 0
-1568 -1623 0
-1568 -1624 0
-1568 -1625 0
-1568 -1626 0
-1568 -1627 0
-1568 -1628 0
-1568 -1629 0
-1568 -1630 0
-1568 -1631 0
-1569 -1570 0
-1569 -1571 0
-1569 -1572 0
-1569 -1573 0
-1569 -1574 0
-1569 -1575 0
-1569 -1576 0
-1569 -1577 0
-1569 -1578 0
-1569 -1579 0
-1569 -1580 0
-1569 -1581 0
-1569 -1582 0
-1569 -1583 0
-1569 -1584 0
-1569 -1585 0
-1569 -1586 0
-1569 -1587 0
-1569 -1588 0
-1569 -1589 0
-1569 -1590 0
-1569 -1591 0
-1569 -1592 0
-1569 -1593 0
-1569 -1594 0
-1569 -1595 0
-1569 -1596 0
-1569 -1597 0
-1569 -1598 0
-1569 -1599 0
-1569 -1600 0
-1569 -1601 0
-1569 -1602 0
-1569 -1603 0
-1569 -1604 0
-1569 -1605 0
-1569 -1606 0
-1569 -1607 0
-1569 -1608 0
-1569 -1609 0
-1569 -1610 0
-1569 -1611 0
-1569 -1612 0
-1569 -1613 0
-1569 -1614 0
-1569 -1615 0
-1569 -1616 0
-1569 -1617 0
-1569 -1618 0
-1569 -1619 0
-1569 -1620 0
-1569 -1621 0
-1569 -1622 0
-1569 -1623 0
-1569 -1624 0
-1569 -1625 0
-1569 -1626 0
-1569 -1627 0
-1569 -1628 0
-1569 -1629 0
-1569 -1630 0
-1569 -1631 0
-1570 -1571 0
-1570 -1572 0
-1570 -1573 0
-1570 -1574 0
-1570 -1575 0
-1570 -1576 0
-1570 -1577 0
-1570 -1578 0
-1570 -1579 0
-1570 -1580 0
-1570 -1581 0
-1570 -1582 0
-1570 -1583 0
-1570 -1584 0
-1570 -1585 0
-1570 -1586 0
-1570 -1587 0
-1570 -1588 0
-1570 -1589 0
-1570 -1590 0
-1570 -1591 0
-1570 -1592 0
-1570 -1593 0
-1570 -1594 0
-1570 -1595 0
-1570 -1596 0
-1570 -1597 0
-1570 -1598 0
-1570 -1599 0
-1570 -1600 0
-1570 -1601 0
-1570 -1602 0
-1570 -1603 0
-1570 -1604 0
-1570 -1605 0
-1570 -1606 0
-1570 -1607 0
-1570 -1608 0
-1570 -1609 0
-1570 -1610 0
-1570 -1611 0
-1570 -1612 0
-1570 -1613 0
-1570 -1614 0
-1570 -1615 0
-1570 -1616 0
-1570 -1617 0
-1570 -1618 0
-1570 -1619 0
-1570 -1620 0
-1570 -1621 0
-1570 -1622 0
-1570 -1623 0
-1570 -1624 0
-1570 -1625 0
-1570 -1626 0
-1570 -1627 0
-1570 -1628 0
-1570 -1629 0
-1570 -1630 0
-1570 -1631 0
-1571 -1572 0
-1571 -1573 0
-1571 -1574 0
-1571 -1575 0
-1571 -1576 0
-1571 -1577 0
-1571 -1578 0
-1571 -1579 0
-1571 -1580 0
-1571 -1581 0
-1571 -1582 0
-1571 -1583 0
-1571 -1584 0
-1571 -1585 0
-1571 -1586 0
-1571 -1587 0
-1571 -1588 0
-1571 -1589 0
-1571 -1590 0
-1571 -1591 0
-1571 -1592 0
-1571 -1593 0
-1571 -1594 0
-1571 -1595 0
-1571 -1596 0
-1571 -1597 0
-1571 -1598 0
-1571 -1599 0
-1571 -1600 0
-1571 -1601 0
-1571 -1602 0
-1571 -1603 0
-1571 -1604 0
-1571 -1605 0
-1571 -1606 0
-1571 -1607 0
-1571 -1608 0
-1571 -1609 0
-1571 -1610 0
-1571 -1611 0
-1571 -1612 0
-1571 -1613 0
-1571 -1614 0
-1571 -1615 0
-1571 -1616 0
-1571 -1617 0
-1571 -1618 0
-1571 -1619 0
-1571 -1620 0
-1571 -1621 0
-1571 -1622 0
-1571 -1623 0
-1571 -1624 0
-1571 -1625 0
-1571 -1626 0
-1571 -1627 0
-1571 -1628 0
-1571 -1629 0
-1571 -1630 0
-1571 -1631 0
-1572 -1573 0
-1572 -1574 0
-1572 -1575 0
-1572 -1576 0
-1572 -1577 0
-1572 -1578 0
-1572 -1579 0
-1572 -1580 0
-1572 -1581 0
-1572 -1582 0
-1572 -1583 0
-1572 -1584 0
-1572 -1585 0
-1572 -1586 0
-1572 -1587 0
-1572 -1588 0
-1572 -1589 0
-1572 -1590 0
-1572 -1591 0
-1572 -1592 0
-1572 -1593 0
-1572 -1594 0
-1572 -1595 0
-1572 -1596 0
-1572 -1597 0
-1572 -1598 0
-1572 -1599 0
-1572 -1600 0
-1572 -1601 0
-1572 -1602 0
-1572 -1603 0
-1572 -1604 0
-1572 -1605 0
-1572 -1606 0
-1572 -1607 0
-1572 -1608 0
-1572 -1609 0
-1572 -1610 0
-1572 -1611 0
-1572 -1612 0
-1572 -1613 0
-1572 -1614 0
-1572 -1615 0
-1572 -1616 0
-1572 -1617 0
-1572 -1618 0
-1572 -1619 0
-1572 -1620 0
-1572 -1621 0
-1572 -1622 0
-1572 -1623 0
-1572 -1624 0
-1572 -1625 0
-1572 -1626 0
-1572 -1627 0
-1572 -1628 0
-1572 -1629 0
-1572 -1630 0
-1572 -1631 0
-1573 -1574 0
-1573 -1575 0
-1573 -1576 0
-1573 -1577 0
-1573 -1578 0
-1573 -1579 0
-1573 -1580 0
-1573 -1581 0
-1573 -1582 0
-1573 -1583 0
-1573 -1584 0
-1573 -1585 0
-1573 -1586 0
-1573 -1587 0
-1573 -1588 0
-1573 -1589 0
-1573 -1590 0
-1573 -1591 0
-1573 -1592 0
-1573 -1593 0
-1573 -1594 0
-1573 -1595 0
-1573 -1596 0
-1573 -1597 0
-1573 -1598 0
-1573 -1599 0
-1573 -1600 0
-1573 -1601 0
-1573 -1602 0
-1573 -1603 0
-1573 -1604 0
-1573 -1605 0
-1573 -1606 0
-1573 -1607 0
-1573 -1608 0
-1573 -1609 0
-1573 -1610 0
-1573 -1611 0
-1573 -1612 0
-1573 -1613 0
-1573 -1614 0
-1573 -1615 0
-1573 -1616 0
-1573 -1617 0
-1573 -1618 0
-1573 -1619 0
-1573 -1620 0
-1573 -1621 0
-1573 -1622 0
-1573 -1623 0
-1573 -1624 0
-1573 -1625 0
-1573 -1626 0
-1573 -1627 0
-1573 -1628 0
-1573 -1629 0
-1573 -1630 0
-1573 -1631 0
-1574 -1575 0
-1574 -1576 0
-1574 -1577 0
-1574 -1578 0
-1574 -1579 0
-1574 -1580 0
-1574 -1581 0
-1574 -1582 0
-1574 -1583 0
-1574 -1584 0
-1574 -1585 0
-1574 -1586 0
-1574 -1587 0
-1574 -1588 0
-1574 -1589 0
-1574 -1590 0
-1574 -1591 0
-1574 -1592 0
-1574 -1593 0
-1574 -1594 0
-1574 -1595 0
-1574 -1596 0
-1574 -1597 0
-1574 -1598 0
-1574 -1599 0
-1574 -1600 0
-1574 -1601 0
-1574 -1602 0
-1574 -1603 0
-1574 -1604 0
-1574 -1605 0
-1574 -1606 0
-1574 -1607 0
-1574 -1608 0
-1574 -1609 0
-1574 -1610 0
-1574 -1611 0
-1574 -1612 0
-1574 -1613 0
-1574 -1614 0
-1574 -1615 0
-1574 -1616 0
-1574 -1617 0
-1574 -1618 0
-1574 -1619 0
-1574 -1620 0
-1574 -1621 0
-1574 -1622 0
-1574 -1623 0
-1574 -1624 0
-1574 -1625 0
-1574 -1626 0
-1574 -1627 0
-1574 -1628 0
-1574 -1629 0
-1574 -1630 0
-1574 -1631 0
-1575 -1576 0
-1575 -1577 0
-1575 -1578 0
-1575 -1579 0
-1575 -1580 0
-1575 -1581 0
-1575 -1582 0
-1575 -1583 0
-1575 -1584 0
-1575 -1585 0
-1575 -1586 0
-1575 -1587 0
-1575 -1588 0
-1575 -1589 0
-1575 -1590 0
-1575 -1591 0
-1575 -1592 0
-1575 -1593 0
-1575 -1594 0
-1575 -1595 0
-1575 -1596 0
-1575 -1597 0
-1575 -1598 0
-1575 -1599 0
-1575 -1600 0
-1575 -1601 0
-1575 -1602 0
-1575 -1603 0
-1575 -1604 0
-1575 -1605 0
-1575 -1606 0
-1575 -1607 0
-1575 -1608 0
-1575 -1609 0
-1575 -1610 0
-1575 -1611 0
-1575 -1612 0
-1575 -1613 0
-1575 -1614 0
-1575 -1615 0
-1575 -1616 0
-1575 -1617 0
-1575 -1618 0
-1575 -1619 0
-1575 -1620 0
-1575 -1621 0
-1575 -1622 0
-1575 -1623 0
-1575 -1624 0
-1575 -1625 0
-1575 -1626 0
-1575 -1627 0
-1575 -1628 0
-1575 -1629 0
-1575 -1630 0
-1575 -1631 0
-1576 -1577 0
-1576 -1578 0
-1576 -1579 0
-1576 -1580 0
-1576 -1581 0
-1576 -1582 0
-1576 -1583 0
-1576 -1584 0
-1576 -1585 0
-1576 -1586 0
-1576 -1587 0
-1576 -1588 0
-1576 -1589 0
-1576 -1590 0
-1576 -1591 0
-1576 -1592 0
-1576 -1593 0
-1576 -1594 0
-1576 -1595 0
-1576 -1596 0
-1576 -1597 0
-1576 -1598 0
-1576 -1599 0
-1576 -1600 0
-1576 -1601 0
-1576 -1602 0
-1576 -1603 0
-1576 -1604 0
-1576 -1605 0
-1576 -1606 0
-1576 -1607 0
-1576 -1608 0
-1576 -1609 0
-1576 -1610 0
-1576 -1611 0
-1576 -1612 0
-1576 -1613 0
-1576 -1614 0
-1576 -1615 0
-1576 -1616 0
-1576 -1617 0
-1576 -1618 0
-1576 -1619 0
-1576 -1620 0
-1576 -1621 0
-1576 -1622 0
-1576 -1623 0
-1576 -1624 0
-1576 -1625 0
-1576 -1626 0
-1576 -1627 0
-1576 -1628 0
-1576 -1629 0
-1576 -1630 0
-1576 -1631 0
-1577 -1578 0
-1577 -1579 0
-1577 -1580 0
-1577 -1581 0
-1577 -1582 0
-1577 -1583 0
-1577 -1584 0
-1577 -1585 0
-1577 -1586 0
-1577 -1587 0
-1577 -1588 0
-1577 -1589 0
-1577 -1590 0
-1577 -1591 0
-1577 -1592 0
-1577 -1593 0
-1577 -1594 0
-1577 -1595 0
-1577 -1596 0
-1577 -1597 0
-1577 -1598 0
-1577 -1599 0
-1577 -1600 0
-1577 -1601 0
-1577 -1602 0
-1577 -1603 0
-1577 -1604 0
-1577 -1605 0
-1577 -1606 0
-1577 -1607 0
-1577 -1608 0
-1577 -1609 0
-1577 -1610 0
-1577 -1611 0
-1577 -1612 0
-1577 -1613 0
-1577 -1614 0
-1577 -1615 0
-1577 -1616 0
-1577 -1617 0
-1577 -1618 0
-1577 -1619 0
-1577 -1620 0
-1577 -1621 0
-1577 -1622 0
-1577 -1623 0
-1577 -1624 0
-1577 -1625 0
-1577 -1626 0
-1577 -1627 0
-1577 -1628 0
-1577 -1629 0
-1577 -1630 0
-1577 -1631 0
-1578 -1579 0
-1578 -1580 0
-1578 -1581 0
-1578 -1582 0
-1578 -1583 0
-1578 -1584 0
-1578 -1585 0
-1578 -1586 0
-1578 -1587 0
-1578 -1588 0
-1578 -1589 0
-1578 -1590 0
-1578 -1591 0
-1578 -1592 0
-1578 -1593 0
-1578 -1594 0
-1578 -1595 0
-1578 -1596 0
-1578 -1597 0
-1578 -1598 0
-1578 -1599 0
-1578 -1600 0
-1578 -1601 0
-1578 -1602 0
-1578 -1603 0
-1578 -1604 0
-1578 -1605 0
-1578 -1606 0
-1578 -1607 0
-1578 -1608 0
-1578 -1609 0
-1578 -1610 0
-1578 -1611 0
-1578 -1612 0
-1578 -1613 0
-1578 -1614 0
-1578 -1615 0
-1578 -1616 0
-1578 -1617 0
-1578 -1618 0
-1578 -1619 0
-1578 -1620 0
-1578 -1621 0
-1578 -1622 0
-1578 -1623 0
-1578 -1624 0
-1578 -1625 0
-1578 -1626 0
-1578 -1627 0
-1578 -1628 0
-1578 -1629 0
-1578 -1630 0
-1578 -1631 0
-1579 -1580 0
-1579 -1581 0
-1579 -1582 0
-1579 -1583 0
-1579 -1584 0
-1579 -1585 0
-1579 -1586 0
-1579 -1587 0
-1579 -1588 0
-1579 -1589 0
-1579 -1590 0
-1579 -1591 0
-1579 -1592 0
-1579 -1593 0
-1579 -1594 0
-1579 -1595 0
-1579 -1596 0
-1579 -1597 0
-1579 -1598 0
-1579 -1599 0
-1579 -1600 0
-1579 -1601 0
-1579 -1602 0
-1579 -1603 0
-1579 -1604 0
-1579 -1605 0
-1579 -1606 0
-1579 -1607 0
-1579 -1608 0
-1579 -1609 0
-1579 -1610 0
-1579 -1611 0
-1579 -1612 0
-1579 -1613 0
-1579 -1614 0
-1579 -1615 0
-1579 -1616 0
-1579 -1617 0
-1579 -1618 0
-1579 -1619 0
-1579 -1620 0
-1579 -1621 0
-1579 -1622 0
-1579 -1623 0
-1579 -1624 0
-1579 -1625 0
-1579 -1626 0
-1579 -1627 0
-1579 -1628 0
-1579 -1629 0
-1579 -1630 0
-1579 -1631 0
-1580 -1581 0
-1580 -1582 0
-1580 -1583 0
-1580 -1584 0
-1580 -1585 0
-1580 -1586 0
-1580 -1587 0
-1580 -1588 0
-1580 -1589 0
-1580 -1590 0
-1580 -1591 0
-1580 -1592 0
-1580 -1593 0
-1580 -1594 0
-1580 -1595 0
-1580 -1596 0
-1580 -1597 0
-1580 -1598 0
-1580 -1599 0
-1580 -1600 0
-1580 -1601 0
-1580 -1602 0
-1580 -1603 0
-1580 -1604 0
-1580 -1605 0
-1580 -1606 0
-1580 -1607 0
-1580 -1608 0
-1580 -1609 0
-1580 -1610 0
-1580 -1611 0
-1580 -1612 0
-1580 -1613 0
-1580 -1614 0
-1580 -1615 0
-1580 -1616 0
-1580 -1617 0
-1580 -1618 0
-1580 -1619 0
-1580 -1620 0
-1580 -1621 0
-1580 -1622 0
-1580 -1623 0
-1580 -1624 0
-1580 -1625 0
-1580 -1626 0
-1580 -1627 0
-1580 -1628 0
-1580 -1629 0
-1580 -1630 0
-1580 -1631 0
-1581 -1582 0
-1581 -1583 0
-1581 -1584 0
-1581 -1585 0
-1581 -1586 0
-1581 -1587 0
-1581 -1588 0
-1581 -1589 0
-1581 -1590 0
-1581 -1591 0
-1581 -1592 0
-1581 -1593 0
-1581 -1594 0
-1581 -1595 0
-1581 -1596 0
-1581 -1597 0
-1581 -1598 0
-1581 -1599 0
-1581 -1600 0
-1581 -1601 0
-1581 -1602 0
-1581 -1603 0
-1581 -1604 0
-1581 -1605 0
-1581 -1606 0
-1581 -1607 0
-1581 -1608 0
-1581 -1609 0
-1581 -1610 0
-1581 -1611 0
-1581 -1612 0
-1581 -1613 0
-1581 -1614 0
-1581 -1615 0
-1581 -1616 0
-1581 -1617 0
-1581 -1618 0
-1581 -1619 0
-1581 -1620 0
-1581 -1621 0
-1581 -1622 0
-1581 -1623 0
-1581 -1624 0
-1581 -1625 0
-1581 -1626 0
-1581 -1627 0
-1581 -1628 0
-1581 -1629 0
-1581 -1630 0
-1581 -1631 0
-1582 -1583 0
-1582 -1584 0
-1582 -1585 0
-1582 -1586 0
-1582 -1587 0
-1582 -1588 0
-1582 -1589 0
-1582 -1590 0
-1582 -1591 0
-1582 -1592 0
-1582 -1593 0
-1582 -1594 0
-1582 -1595 0
-1582 -1596 0
-1582 -1597 0
-1582 -1598 0
-1582 -1599 0
-1582 -1600 0
-1582 -1601 0
-1582 -1602 0
-1582 -1603 0
-1582 -1604 0
-1582 -1605 0
-1582 -1606 0
-1582 -1607 0
-1582 -1608 0
-1582 -1609 0
-1582 -1610 0
-1582 -1611 0
-1582 -1612 0
-1582 -1613 0
-1582 -1614 0
-1582 -1615 0
-1582 -1616 0
-1582 -1617 0
-1582 -1618 0
-1582 -1619 0
-1582 -1620 0
-1582 -1621 0
-1582 -1622 0
-1582 -1623 0
-1582 -1624 0
-1582 -1625 0
-1582 -1626 0
-1582 -1627 0
-1582 -1628 0
-1582 -1629 0
-1582 -1630 0
-1582 -1631 0
-1583 -1584 0
-1583 -1585 0
-1583 -1586 0
-1583 -1587 0
-1583 -1588 0
-1583 -1589 0
-1583 -1590 0
-1583 -1591 0
-1583 -1592 0
-1583 -1593 0
-1583 -1594 0
-1583 -1595 0
-1583 -1596 0
-1583 -1597 0
-1583 -1598 0
-1583 -1599 0
-1583 -1600 0
-1583 -1601 0
-1583 -1602 0
-1583 -1603 0
-1583 -1604 0
-1583 -1605 0
-1583 -1606 0
-1583 -1607 0
-1583 -1608 0
-1583 -1609 0
-1583 -1610 0
-1583 -1611 0
-1583 -1612 0
-1583 -1613 0
-1583 -1614 0
-1583 -1615 0
-1583 -1616 0
-1583 -1617 0
-1583 -1618 0
-1583 -1619 0
-1583 -1620 0
-1583 -1621 0
-1583 -1622 0
-1583 -1623 0
-1583 -1624 0
-1583 -1625 0
-1583 -1626 0
-1583 -1627 0
-1583 -1628 0
-1583 -1629 0
-1583 -1630 0
-1583 -1631 0
-1584 -1585 0
-1584 -1586 0
-1584 -1587 0
-1584 -1588 0
-1584 -1589 0
-1584 -1590 0
-1584 -1591 0
-1584 -1592 0
-1584 -1593 0
-1584 -1594 0
-1584 -1595 0
-1584 -1596 0
-1584 -1597 0
-1584 -1598 0
-1584 -1599 0
-1584 -1600 0
-1584 -1601 0
-1584 -1602 0
-1584 -1603 0
-1584 -1604 0
-1584 -1605 0
-1584 -1606 0
-1584 -1607 0
-1584 -1608 0
-1584 -1609 0
-1584 -1610 0
-1584 -1611 0
-1584 -1612 0
-1584 -1613 0
-1584 -1614 0
-1584 -1615 0
-1584 -1616 0
-1584 -1617 0
-1584 -1618 0
-1584 -1619 0
-1584 -1620 0
-1584 -1621 0
-1584 -1622 0
-1584 -1623 0
-1584 -1624 0
-1584 -1625 0
-1584 -1626 0
-1584 -1627 0
-1584 -1628 0
-1584 -1629 0
-1584 -1630 0
-1584 -1631 0
-1585 -1586 0
-1585 -1587 0
-1585 -1588 0
-1585 -1589 0
-1585 -1590 0
-1585 -1591 0
-1585 -1592 0
-1585 -1593 0
-1585 -1594 0
-1585 -1595 0
-1585 -1596 0
-1585 -1597 0
-1585 -1598 0
-1585 -1599 0
-1585 -1600 0
-1585 -1601 0
-1585 -1602 0
-1585 -1603 0
-1585 -1604 0
-1585 -1605 0
-1585 -1606 0
-1585 -1607 0
-1585 -1608 0
-1585 -1609 0
-1585 -1610 0
-1585 -1611 0
-1585 -1612 0
-1585 -1613 0
-1585 -1614 0
-1585 -1615 0
-1585 -1616 0
-1585 -1617 0
-1585 -1618 0
-1585 -1619 0
-1585 -1620 0
-1585 -1621 0
-1585 -1622 0
-1585 -1623 0
-1585 -1624 0
-1585 -1625 0
-1585 -1626 0
-1585 -1627 0
-1585 -1628 0
-1585 -1629 0
-1585 -1630 0
-1585 -1631 0
-1586 -1587 0
-1586 -1588 0
-1586 -1589 0
-1586 -1590 0
-1586 -1591 0
-1586 -1592 0
-1586 -1593 0
-1586 -1594 0
-1586 -1595 0
-1586 -1596 0
-1586 -1597 0
-1586 -1598 0
-1586 -1599 0
-1586 -1600 0
-1586 -1601 0
-1586 -1602 0
-1586 -1603 0
-1586 -1604 0
-1586 -1605 0
-1586 -1606 0
-1586 -1607 0
-1586 -1608 0
-1586 -1609 0
-1586 -1610 0
-1586 -1611 0
-1586 -1612 0
-1586 -1613 0
-1586 -1614 0
-1586 -1615 0
-1586 -1616 0
-1586 -1617 0
-1586 -1618 0
-1586 -1619 0
-1586 -1620 0
-1586 -1621 0
-1586 -1622 0
-1586 -1623 0
-1586 -1624 0
-1586 -1625 0
-1586 -1626 0
-1586 -1627 0
-1586 -1628 0
-1586 -1629 0
-1586 -1630 0
-1586 -1631 0
-1587 -1588 0
-1587 -1589 0
-1587 -1590 0
-1587 -1591 0
-1587 -1592 0
-1587 -1593 0
-1587 -1594 0
-1587 -1595 0
-1587 -1596 0
-1587 -1597 0
-1587 -1598 0
-1587 -1599 0
-1587 -1600 0
-1587 -1601 0
-1587 -1602 0
-1587 -1603 0
-1587 -1604 0
-1587 -1605 0
-1587 -1606 0
-1587 -1607 0
-1587 -1608 0
-1587 -1609 0
-1587 -1610 0
-1587 -1611 0
-1587 -1612 0
-1587 -1613 0
-1587 -1614 0
-1587 -1615 0
-1587 -1616 0
-1587 -1617 0
-1587 -1618 0
-1587 -1619 0
-1587 -1620 0
-1587 -1621 0
-1587 -1622 0
-1587 -1623 0
-1587 -1624 0
-1587 -1625 0
-1587 -1626 0
-1587 -1627 0
-1587 -1628 0
-1587 -1629 0
-1587 -1630 0
-1587 -1631 0
-1588 -1589 0
-1588 -1590 0
-1588 -1591 0
-1588 -1592 0
-1588 -1593 0
-1588 -1594 0
-1588 -1595 0
-1588 -1596 0
-1588 -1597 0
-1588 -1598 0
-1588 -1599 0
-1588 -1600 0
-1588 -1601 0
-1588 -1602 0
-1588 -1603 0
-1588 -1604 0
-1588 -1605 0
-1588 -1606 0
-1588 -1607 0
-1588 -1608 0
-1588 -1609 0
-1588 -1610 0
-1588 -1611 0
-1588 -1612 0
-1588 -1613 0
-1588 -1614 0
-1588 -1615 0
-1588 -1616 0
-1588 -1617 0
-1588 -1618 0
-1588 -1619 0
-1588 -1620 0
-1588 -1621 0
-1588 -1622 0
-1588 -1623 0
-1588 -1624 0
-1588 -1625 0
-1588 -1626 0
-1588 -1627 0
-1588 -1628 0
-1588 -1629 0
-1588 -1630 0
-1588 -1631 0
-1589 -1590 0
-1589 -1591 0
-1589 -1592 0
-1589 -1593 0
-1589 -1594 0
-1589 -1595 0
-1589 -1596 0
-1589 -1597 0
-1589 -1598 0
-1589 -1599 0
-1589 -1600 0
-1589 -1601 0
-1589 -1602 0
-1589 -1603 0
-1589 -1604 0
-1589 -1605 0
-1589 -1606 0
-1589 -1607 0
-1589 -1608 0
-1589 -1609 0
-1589 -1610 0
-1589 -1611 0
-1589 -1612 0
-1589 -1613 0
-1589 -1614 0
-1589 -1615 0
-1589 -1616 0
-1589 -1617 0
-1589 -1618 0
-1589 -1619 0
-1589 -1620 0
-1589 -1621 0
-1589 -1622 0
-1589 -1623 0
-1589 -1624 0
-1589 -1625 0
-1589 -1626 0
-1589 -1627 0
-1589 -1628 0
-1589 -1629 0
-1589 -1630 0
-1589 -1631 0
-1590 -1591 0
-1590 -1592 0
-1590 -1593 0
-1590 -1594 0
-1590 -1595 0
-1590 -1596 0
-1590 -1597 0
-1590 -1598 0
-1590 -1599 0
-1590 -1600 0
-1590 -1601 0
-1590 -1602 0
-1590 -1603 0
-1590 -1604 0
-1590 -1605 0
-1590 -1606 0
-1590 -1607 0
-1590 -1608 0
-1590 -1609 0
-1590 -1610 0
-1590 -1611 0
-1590 -1612 0
-1590 -1613 0
-1590 -1614 0
-1590 -1615 0
-1590 -1616 0
-1590 -1617 0
-1590 -1618 0
-1590 -1619 0
-1590 -1620 0
-1590 -1621 0
-1590 -1622 0
-1590 -1623 0
-1590 -1624 0
-1590 -1625 0
-1590 -1626 0
-1590 -1627 0
-1590 -1628 0
-1590 -1629 0
-1590 -1630 0
-1590 -1631 0
-1591 -1592 0
-1591 -1593 0
-1591 -1594 0
-1591 -1595 0
-1591 -1596 0
-1591 -1597 0
-1591 -1598 0
-1591 -1599 0
-1591 -1600 0
-1591 -1601 0
-1591 -1602 0
-1591 -1603 0
-1591 -1604 0
-1591 -1605 0
-1591 -1606 0
-1591 -1607 0
-1591 -1608 0
-1591 -1609 0
-1591 -1610 0
-1591 -1611 0
-1591 -1612 0
-1591 -1613 0
-1591 -1614 0
-1591 -1615 0
-1591 -1616 0
-1591 -1617 0
-1591 -1618 0
-1591 -1619 0
-1591 -1620 0
-1591 -1621 0
-1591 -1622 0
-1591 -1623 0
-1591 -1624 0
-1591 -1625 0
-1591 -1626 0
-1591 -1627 0
-1591 -1628 0
-1591 -1629 0
-1591 -1630 0
-1591 -1631 0
-1592 -1593 0
-1592 -1594 0
-1592 -1595 0
-1592 -1596 0
-1592 -1597 0
-1592 -1598 0
-1592 -1599 0
-1592 -1600 0
-1592 -1601 0
-1592 -1602 0
-1592 -1603 0
-1592 -1604 0
-1592 -1605 0
-1592 -1606 0
-1592 -1607 0
-1592 -1608 0
-1592 -1609 0
-1592 -1610 0
-1592 -1611 0
-1592 -1612 0
-1592 -1613 0
-1592 -1614 0
-1592 -1615 0
-1592 -1616 0
-1592 -1617 0
-1592 -1618 0
-1592 -1619 0
-1592 -1620 0
-1592 -1621 0
-1592 -1622 0
-1592 -1623 0
-1592 -1624 0
-1592 -1625 0
-1592 -1626 0
-1592 -1627 0
-1592 -1628 0
-1592 -1629 0
-1592 -1630 0
-1592 -1631 0
-1593 -1594 0
-1593 -1595 0
-1593 -1596 0
-1593 -1597 0
-1593 -1598 0
-1593 -1599 0
-1593 -1600 0
-1593 -1601 0
-1593 -1602 0
-1593 -1603 0
-1593 -1604 0
-1593 -1605 0
-1593 -1606 0
-1593 -1607 0
-1593 -1608 0
-1593 -1609 0
-1593 -1610 0
-1593 -1611 0
-1593 -1612 0
-1593 -1613 0
-1593 -1614 0
-1593 -1615 0
-1593 -1616 0
-1593 -1617 0
-1593 -1618 0
-1593 -1619 0
-1593 -1620 0
-1593 -1621 0
-1593 -1622 0
-1593 -1623 0
-1593 -1624 0
-1593 -1625 0
-1593 -1626 0
-1593 -1627 0
-1593 -1628 0
-1593 -1629 0
-1593 -1630 0
-1593 -1631 0
-1594 -1595 0
-1594 -1596 0
-1594 -1597 0
-1594 -1598 0
-1594 -1599 0
-1594 -1600 0
-1594 -1601 0
-1594 -1602 0
-1594 -1603 0
-1594 -1604 0
-1594 -1605 0
-1594 -1606 0
-1594 -1607 0
-1594 -1608 0
-1594 -1609 0
-1594 -1610 0
-1594 -1611 0
-1594 -1612 0
-1594 -1613 0
-1594 -1614 0
-1594 -1615 0
-1594 -1616 0
-1594 -1617 0
-1594 -1618 0
-1594 -1619 0
-1594 -1620 0
-1594 -1621 0
-1594 -1622 0
-1594 -1623 0
-1594 -1624 0
-1594 -1625 0
-1594 -1626 0
-1594 -1627 0
-1594 -1628 0
-1594 -1629 0
-1594 -1630 0
-1594 -1631 0
-1595 -1596 0
-1595 -1597 0
-1595 -1598 0
-1595 -1599 0
-1595 -1600 0
-1595 -1601 0
-1595 -1602 0
-1595 -1603 0
-1595 -1604 0
-1595 -1605 0
-1595 -1606 0
-1595 -1607 0
-1595 -1608 0
-1595 -1609 0
-1595 -1610 0
-1595 -1611 0
-1595 -1612 0
-1595 -1613 0
-1595 -1614 0
-1595 -1615 0
-1595 -1616 0
-1595 -1617 0
-1595 -1618 0
-1595 -1619 0
-1595 -1620 0
-1595 -1621 0
-1595 -1622 0
-1595 -1623 0
-1595 -1624 0
-1595 -1625 0
-1595 -1626 0
-1595 -1627 0
-1595 -1628 0
-1595 -1629 0
-1595 -1630 0
-1595 -1631 0
-1596 -1597 0
-1596 -1598 0
-1596 -1599 0
-1596 -1600 0
-1596 -1601 0
-1596 -1602 0
-1596 -1603 0
-1596 -1604 0
-1596 -1605 0
-1596 -1606 0
-1596 -1607 0
-1596 -1608 0
-1596 -1609 0
-1596 -1610 0
-1596 -1611 0
-1596 -1612 0
-1596 -1613 0
-1596 -1614 0
-1596 -1615 0
-1596 -1616 0
-1596 -1617 0
-1596 -1618 0
-1596 -1619 0
-1596 -1620 0
-1596 -1621 0
-1596 -1622 0
-1596 -1623 0
-1596 -1624 0
-1596 -1625 0
-1596 -1626 0
-1596 -1627 0
-1596 -1628 0
-1596 -1629 0
-1596 -1630 0
-1596 -1631 0
-1597 -1598 0
-1597 -1599 0
-1597 -1600 0
-1597 -1601 0
-1597 -1602 0
-1597 -1603 0
-1597 -1604 0
-1597 -1605 0
-1597 -1606 0
-1597 -1607 0
-1597 -1608 0
-1597 -1609 0
-1597 -1610 0
-1597 -1611 0
-1597 -1612 0
-1597 -1613 0
-1597 -1614 0
-1597 -1615 0
-1597 -1616 0
-1597 -1617 0
-1597 -1618 0
-1597 -1619 0
-1597 -1620 0
-1597 -1621 0
-1597 -1622 0
-1597 -1623 0
-1597 -1624 0
-1597 -1625 0
-1597 -1626 0
-1597 -1627 0
-1597 -1628 0
-1597 -1629 0
-1597 -1630 0
-1597 -1631 0
-1598 -1599 0
-1598 -1600 0
-1598 -1601 0
-1598 -1602 0
-1598 -1603 0
-1598 -1604 0
-1598 -1605 0
-1598 -1606 0
-1598 -1607 0
-1598 -1608 0
-1598 -1609 0
-1598 -1610 0
-1598 -1611 0
-1598 -1612 0
-1598 -1613 0
-1598 -1614 0
-1598 -1615 0
-1598 -1616 0
-1598 -1617 0
-1598 -1618 0
-1598 -1619 0
-1598 -1620 0
-1598 -1621 0
-1598 -1622 0
-1598 -1623 0
-1598 -1624 0
-1598 -1625 0
-1598 -1626 0
-1598 -1627 0
-1598 -1628 0
-1598 -1629 0
-1598 -1630 0
-1598 -1631 0
-1599 -1600 0
-1599 -1601 0
-1599 -1602 0
-1599 -1603 0
-1599 -1604 0
-1599 -1605 0
-1599 -1606 0
-1599 -1607 0
-1599 -1608 0
-1599 -1609 0
-1599 -1610 0
-1599 -1611 0
-1599 -1612 0
-1599 -1613 0
-1599 -1614 0
-1599 -1615 0
-1599 -1616 0
-1599 -1617 0
-1599 -1618 0
-1599 -1619 0
-1599 -1620 0
-1599 -1621 0
-1599 -1622 0
-1599 -1623 0
-1599 -1624 0
-1599 -1625 0
-1599 -1626 0
-1599 -1627 0
-1599 -1628 0
-1599 -1629 0
-1599 -1630 0
-1599 -1631 0
-1600 -1601 0
-1600 -1602 0
-1600 -1603 0
-1600 -1604 0
-1600 -1605 0
-1600 -1606 0
-1600 -1607 0
-1600 -1608 0
-1600 -1609 0
-1600 -1610 0
-1600 -1611 0
-1600 -1612 0
-1600 -1613 0
-1600 -1614 0
-1600 -1615 0
-1600 -1616 0
-1600 -1617 0
-1600 -1618 0
-1600 -1619 0
-1600 -1620 0
-1600 -1621 0
-1600 -1622 0
-1600 -1623 0
-1600 -1624 0
-1600 -1625 0
-1600 -1626 0
-1600 -1627 0
-1600 -1628 0
-1600 -1629 0
-1600 -1630 0
-1600 -1631 0
-1601 -1602 0
-1601 -1603 0
-1601 -1604 0
-1601 -1605 0
-1601 -1606 0
-1601 -1607 0
-1601 -1608 0
-1601 -1609 0
-1601 -1610 0
-1601 -1611 0
-1601 -1612 0
-1601 -1613 0
-1601 -1614 0
-1601 -1615 0
-1601 -1616 0
-1601 -1617 0
-1601 -1618 0
-1601 -1619 0
-1601 -1620 0
-1601 -1621 0
-1601 -1622 0
-1601 -1623 0
-1601 -1624 0
-1601 -1625 0
-1601 -1626 0
-1601 -1627 0
-1601 -1628 0
-1601 -1629 0
-1601 -1630 0
-1601 -1631 0
-1602 -1603 0
-1602 -1604 0
-1602 -1605 0
-1602 -1606 0
-1602 -1607 0
-1602 -1608 0
-1602 -1609 0
-1602 -1610 0
-1602 -1611 0
-1602 -1612 0
-1602 -1613 0
-1602 -1614 0
-1602 -1615 0
-1602 -1616 0
-1602 -1617 0
-1602 -1618 0
-1602 -1619 0
-1602 -1620 0
-1602 -1621 0
-1602 -1622 0
-1602 -1623 0
-1602 -1624 0
-1602 -1625 0
-1602 -1626 0
-1602 -1627 0
-1602 -1628 0
-1602 -1629 0
-1602 -1630 0
-1602 -1631 0
-1603 -1604 0
-1603 -1605 0
-1603 -1606 0
-1603 -1607 0
-1603 -1608 0
-1603 -1609 0
-1603 -1610 0
-1603 -1611 0
-1603 -1612 0
-1603 -1613 0
-1603 -1614 0
-1603 -1615 0
-1603 -1616 0
-1603 -1617 0
-1603 -1618 0
-1603 -1619 0
-1603 -1620 0
-1603 -1621 0
-1603 -1622 0
-1603 -1623 0
-1603 -1624 0
-1603 -1625 0
-1603 -1626 0
-1603 -1627 0
-1603 -1628 0
-1603 -1629 0
-1603 -1630 0
-1603 -1631 0
-1604 -1605 0
-1604 -1606 0
-1604 -1607 0
-1604 -1608 0
-1604 -1609 0
-1604 -1610 0
-1604 -1611 0
-1604 -1612 0
-1604 -1613 0
-1604 -1614 0
-1604 -1615 0
-1604 -1616 0
-1604 -1617 0
-1604 -1618 0
-1604 -1619 0
-1604 -1620 0
-1604 -1621 0
-1604 -1622 0
-1604 -1623 0
-1604 -1624 0
-1604 -1625 0
-1604 -1626 0
-1604 -1627 0
-1604 -1628 0
-1604 -1629 0
-1604 -1630 0
-1604 -1631 0
-1605 -1606 0
-1605 -1607 0
-1605 -1608 0
-1605 -1609 0
-1605 -1610 0
-1605 -1611 0
-1605 -1612 0
-1605 -1613 0
-1605 -1614 0
-1605 -1615 0
-1605 -1616 0
-1605 -1617 0
-1605 -1618 0
-1605 -1619 0
-1605 -1620 0
-1605 -1621 0
-1605 -1622 0
-1605 -1623 0
-1605 -1624 0
-1605 -1625 0
-1605 -1626 0
-1605 -1627 0
-1605 -1628 0
-1605 -1629 0
-1605 -1630 0
-1605 -1631 0
-1606 -1607 0
-1606 -1608 0
-1606 -1609 0
-1606 -1610 0
-1606 -1611 0
-1606 -1612 0
-1606 -1613 0
-1606 -1614 0
-1606 -1615 0
-1606 -1616 0
-1606 -1617 0
-1606 -1618 0
-1606 -1619 0
-1606 -1620 0
-1606 -1621 0
-1606 -1622 0
-1606 -1623 0
-1606 -1624 0
-1606 -1625 0
-1606 -1626 0
-1606 -1627 0
-1606 -1628 0
-1606 -1629 0
-1606 -1630 0
-1606 -1631 0
-1607 -1608 0
-1607 -1609 0
-1607 -1610 0
-1607 -1611 0
-1607 -1612 0
-1607 -1613 0
-1607 -1614 0
-1607 -1615 0
-1607 -1616 0
-1607 -1617 0
-1607 -1618 0
-1607 -1619 0
-1607 -1620 0
-1607 -1621 0
-1607 -1622 0
-1607 -1623 0
-1607 -1624 0
-1607 -1625 0
-1607 -1626 0
-1607 -1627 0
-1607 -1628 0
-1607 -1629 0
-1607 -1630 0
-1607 -1631 0
-1608 -1609 0
-1608 -1610 0
-1608 -1611 0
-1608 -1612 0
-1608 -1613 0
-1608 -1614 0
-1608 -1615 0
-1608 -1616 0
-1608 -1617 0
-1608 -1618 0
-1608 -1619 0
-1608 -1620 0
-1608 -1621 0
-1608 -1622 0
-1608 -1623 0
-1608 -1624 0
-1608 -1625 0
-1608 -1626 0
-1608 -1627 0
-1608 -1628 0
-1608 -1629 0
-1608 -1630 0
-1608 -1631 0
-1609 -1610 0
-1609 -1611 0
-1609 -1612 0
-1609 -1613 0
-1609 -1614 0
-1609 -1615 0
-1609 -1616 0
-1609 -1617 0
-1609 -1618 0
-1609 -1619 0
-1609 -1620 0
-1609 -1621 0
-1609 -1622 0
-1609 -1623 0
-1609 -1624 0
-1609 -1625 0
-1609 -1626 0
-1609 -1627 0
-1609 -1628 0
-1609 -1629 0
-1609 -1630 0
-1609 -1631 0
-1610 -1611 0
-1610 -1612 0
-1610 -1613 0
-1610 -1614 0
-1610 -1615 0
-1610 -1616 0
-1610 -1617 0
-1610 -1618 0
-1610 -1619 0
-1610 -1620 0
-1610 -1621 0
-1610 -1622 0
-1610 -1623 0
-1610 -1624 0
-1610 -1625 0
-1610 -1626 0
-1610 -1627 0
-1610 -1628 0
-1610 -1629 0
-1610 -1630 0
-1610 -1631 0
-1611 -1612 0
-1611 -1613 0
-1611 -1614 0
-1611 -1615 0
-1611 -1616 0
-1611 -1617 0
-1611 -1618 0
-1611 -1619 0
-1611 -1620 0
-1611 -1621 0
-1611 -1622 0
-1611 -1623 0
-1611 -1624 0
-1611 -1625 0
-1611 -1626 0
-1611 -1627 0
-1611 -1628 0
-1611 -1629 0
-1611 -1630 0
-1611 -1631 0
-1612 -1613 0
-1612 -1614 0
-1612 -1615 0
-1612 -1616 0
-1612 -1617 0
-1612 -1618 0
-1612 -1619 0
-1612 -1620 0
-1612 -1621 0
-1612 -1622 0
-1612 -1623 0
-1612 -1624 0
-1612 -1625 0
-1612 -1626 0
-1612 -1627 0
-1612 -1628 0
-1612 -1629 0
-1612 -1630 0
-1612 -1631 0
-1613 -1614 0
-1613 -1615 0
-1613 -1616 0
-1613 -1617 0
-1613 -1618 0
-1613 -1619 0
-1613 -1620 0
-1613 -1621 0
-1613 -1622 0
-1613 -1623 0
-1613 -1624 0
-1613 -1625 0
-1613 -1626 0
-1613 -1627 0
-1613 -1628 0
-1613 -1629 0
-1613 -1630 0
-1613 -1631 0
-1614 -1615 0
-1614 -1616 0
-1614 -1617 0
-1614 -1618 0
-1614 -1619 0
-1614 -1620 0
-1614 -1621 0
-1614 -1622 0
-1614 -1623 0
-1614 -1624 0
-1614 -1625 0
-1614 -1626 0
-1614 -1627 0
-1614 -1628 0
-1614 -1629 0
-1614 -1630 0
-1614 -1631 0
-1615 -1616 0
-1615 -1617 0
-1615 -1618 0
-1615 -1619 0
-1615 -1620 0
-1615 -1621 0
-1615 -1622 0
-1615 -1623 0
-1615 -1624 0
-1615 -1625 0
-1615 -1626 0
-1615 -1627 0
-1615 -1628 0
-1615 -1629 0
-1615 -1630 0
-1615 -1631 0
-1616 -1617 0
-1616 -1618 0
-1616 -1619 0
-1616 -1620 0
-1616 -1621 0
-1616 -1622 0
-1616 -1623 0
-1616 -1624 0
-1616 -1625 0
-1616 -1626 0
-1616 -1627 0
-1616 -1628 0
-1616 -1629 0
-1616 -1630 0
-1616 -1631 0
-1617 -1618 0
-1617 -1619 0
-1617 -1620 0
-1617 -1621 0
-1617 -1622 0
-1617 -1623 0
-1617 -1624 0
-1617 -1625 0
-1617 -1626 0
-1617 -1627 0
-1617 -1628 0
-1617 -1629 0
-1617 -1630 0
-1617 -1631 0
-1618 -1619 0
-1618 -1620 0
-1618 -1621 0
-1618 -1622 0
-1618 -1623 0
-1618 -1624 0
-1618 -1625 0
-1618 -1626 0
-1618 -1627 0
-1618 -1628 0
-1618 -1629 0
-1618 -1630 0
-1618 -1631 0
-1619 -1620 0
-1619 -1621 0
-1619 -1622 0
-1619 -1623 0
-1619 -1624 0
-1619 -1625 0
-1619 -1626 0
-1619 -1627 0
-1619 -1628 0
-1619 -1629 0
-1619 -1630 0
-1619 -1631 0
-1620 -1621 0
-1620 -1622 0
-1620 -1623 0
-1620 -1624 0
-1620 -1625 0
-1620 -1626 0
-1620 -1627 0
-1620 -1628 0
-1620 -1629 0
-1620 -1630 0
-1620 -1631 0
-1621 -1622 0
-1621 -1623 0
-1621 -1624 0
-1621 -1625 0
-1621 -1626 0
-1621 -1627 0
-1621 -1628 0
-1621 -1629 0
-1621 -1630 0
-1621 -1631 0
-1622 -1623 0
-1622 -1624 0
-1622 -1625 0
-1622 -1626 0
-1622 -1627 0
-1622 -1628 0
-1622 -1629 0
-1622 -1630 0
-1622 -1631 0
-1623 -1624 0
-1623 -1625 0
-1623 -1626 0
-1623 -1627 0
-1623 -1628 0
-1623 -1629 0
-1623 -1630 0
-1623 -1631 0
-1624 -1625 0
-1624 -1626 0
-1624 -1627 0
-1624 -1628 0
-1624 -1629 0
-1624 -1630 0
-1624 -1631 0
-1625 -1626 0
-1625 -1627 0
-1625 -1628 0
-1625 -1629 0
-1625 -1630 0
-1625 -1631 0
-1626 -1627 0
-1626 -1628 0
-1626 -1629 0
-1626 -1630 0
-1626 -1631 0
-1627 -1628 0
-1627 -1629 0
-1627 -1630 0
-1627 -1631 0
-1628 -1629 0
-1628 -1630 0
-1628 -1631 0
-1629 -1630 0
-1629 -1631 0
-1630 -1631 0
1632 1633 1634 1635 1636 1637 1638 1639 1640 1641 1642 1643 1644 1645 1646 1647 1648 1649 1650 1651 1652 1653 1654 1655 1656 1657 1658 1659 1660 1661 1662 1663 1664 1665 1666 1667 1668 1669 1670 1671 1672 1673 1674 1675 1676 1677 1678 1679 1680 1681 1682 1683 1684 1685 1686 1687 1688 1689 1690 1691 1692 1693 1694 1695 1696 1697 1698 1699 1700 1701 1702 1703 1704 1705 1706 1707 1708 1709 1710 1711 1712 1713 1714 1715 0
-1632 -1633 0
-1632 -1634 0
-1632 -1635 0
-1632 -1636 0
-1632 -1637 0
-1632 -1638 0
-1632 -1639 0
-1632 -1640 0
-1632 -1641 0
-1632 -1642 0
-1632 -1643 0
-1632 -1644 0
-1632 -1645 0
-1632 -1646 0
-1632 -1647 0
-1632 -1648 0
-1632 -1649 0
-1632 -1650 0
-1632 -1651 0
-1632 -1652 0
-1632 -1653 0
-1632 -1654 0
-1632 -1655 0
-1632 -1656 0
-1632 -1657 0
-1632 -1658 0
-1632 -1659 0
-1632 -1660 0
-1632 -1661 0
-1632 -1662 0
-1632 -1663 0
-1632 -1664 0
-1632 -1665 0
-1632 -1666 0
-1632 -1667 0
-1632 -1668 0
-1632 -1669 0
-1632 -1670 0
-1632 -1671 0
-1632 -1672 0
-1632 -1673 0
-1632 -1674 0
-1632 -1675 0
-1632 -1676 0
-1632 -1677 0
-1632 -1678 0
-1632 -1679 0
-1632 -1680 0
-1632 -1681 0
-1632 -1682 0
-1632 -1683 0
-1632 -1684 0
-1632 -1685 0
-1632 -1686 0
-1632 -1687 0
-1632 -1688 0
-1632 -1689 0
-1632 -1690 0
-1632 -1691 0
-1632 -1692 0
-1632 -1693 0
-1632 -1694 0
-1632 -1695 0
-1632 -1696 0
-1632 -1697 0
-1632 -1698 0
-1632 -1699 0
-1632 -1700 0
-1632 -1701 0
-1632 -1702 0
-1632 -1703 0
-1632 -1704 0
-1632 -1705 0
-1632 -1706 0
-1632 -1707 0
-1632 -1708 0
-1632 -1709 0
-1632 -1710 0
-1632 -1711 0
-1632 -1712 0
-1632 -1713 0
-1632 -1714 0
-1632 -1715 0
-1633 -1634 0
-1633 -1635 0
-1633 -1636 0
-1633 -1637 0
-1633 -1638 0
-1633 -1639 0
-1633 -1640 0
-1633 -1641 0
-1633 -1642 0
-1633 -1643 0
-1633 -1644 0
-1633 -1645 0
-1633 -1646 0
-1633 -1647 0
-1633 -1648 0
-1633 -1649 0
-1633 -1650 0
-1633 -1651 0
-1633 -1652 0
-1633 -1653 0
-1633 -1654 0
-1633 -1655 0
-1633 -1656 0
-1633 -1657 0
-1633 -1658 0
-1633 -1659 0
-1633 -1660 0
-1633 -1661 0
-1633 -1662 0
-1633 -1663 0
-1633 -1664 0
-1633 -1665 0
-1633 -1666 0
-1633 -1667 0
-1633 -1668 0
-1633 -1669 0
-1633 -1670 0
-1633 -1671 0
-1633 -1672 0
-1633 -1673 0
-1633 -1674 0
-1633 -1675 0
-1633 -1676 0
-1633 -1677 0
-1633 -1678 0
-1633 -1679 0
-1633 -1680 0
-1633 -1681 0
-1633 -1682 0
-1633 -1683 0
-1633 -1684 0
-1633 -1685 0
-1633 -1686 0
-1633 -1687 0
-1633 -1688 0
-1633 -1689 0
-1633 -1690 0
-1633 -1691 0
-1633 -1692 0
-1633 -1693 0
-1633 -1694 0
-1633 -1695 0
-1633 -1696 0
-1633 -1697 0
-1633 -1698 0
-1633 -1699 0
-1633 -1700 0
-1633 -1701 0
-1633 -1702 0
-1633 -1703 0
-1633 -1704 0
-1633 -1705 0
-1633 -1706 0
-1633 -1707 0
-1633 -1708 0
-1633 -1709 0
-1633 -1710 0
-1633 -1711 0
-1633 -1712 0
-1633 -1713 0
-1633 -1714 0
-1633 -1715 0
-1634 -1635 0
-1634 -1636 0
-1634 -1637 0
-1634 -1638 0
-1634 -1639 0
-1634 -1640 0
-1634 -1641 0
-1634 -1642 0
-1634 -1643 0
-1634 -1644 0
-1634 -1645 0
-1634 -1646 0
-1634 -1647 0
-1634 -1648 0
-1634 -1649 0
-1634 -1650 0
-1634 -1651 0
-1634 -1652 0
-1634 -1653 0
-1634 -1654 0
-1634 -1655 0
-1634 -1656 0
-1634 -1657 0
-1634 -1658 0
-1634 -1659 0
-1634 -1660 0
-1634 -1661 0
-1634 -1662 0
-1634 -1663 0
-1634 -1664 0
-1634 -1665 0
-1634 -1666 0
-1634 -1667 0
-1634 -1668 0
-1634 -1669 0
-1634 -1670 0
-1634 -1671 0
-1634 -1672 0
-1634 -1673 0
-1634 -1674 0
-1634 -1675 0
-1634 -1676 0
-1634 -1677 0
-1634 -1678 0
-1634 -1679 0
-1634 -1680 0
-1634 -1681 0
-1634 -1682 0
-1634 -1683 0
-1634 -1684 0
-1634 -1685 0
-1634 -1686 0
-1634 -1687 0
-1634 -1688 0
-1634 -1689 0
-1634 -1690 0
-1634 -1691 0
-1634 -1692 0
-1634 -1693 0
-1634 -1694 0
-1634 -1695 0
-1634 -1696 0
-1634 -1697 0
-1634 -1698 0
-1634 -1699 0
-1634 -1700 0
-1634 -1701 0
-1634 -1702 0
-1634 -1703 0
-1634 -1704 0
-1634 -1705 0
-1634 -1706 0
-1634 -1707 0
-1634 -1708 0
-1634 -1709 0
-1634 -1710 0
-1634 -1711 0
-1634 -1712 0
-1634 -1713 0
-1634 -1714 0
-1634 -1715 0
-1635 -1636 0
-1635 -1637 0
-1635 -1638 0
-1635 -1639 0
-1635 -1640 0
-1635 -1641 0
-1635 -1642 0
-1635 -1643 0
-1635 -1644 0
-1635 -1645 0
-1635 -1646 0
-1635 -1647 0
-1635 -1648 0
-1635 -1649 0
-1635 -1650 0
-1635 -1651 0
-1635 -1652 0
-1635 -1653 0
-1635 -1654 0
-1635 -1655 0
-1635 -1656 0
-1635 -1657 0
-1635 -1658 0
-1635 -1659 0
-1635 -1660 0
-1635 -1661 0
-1635 -1662 0
-1635 -1663 0
-1635 -1664 0
-1635 -1665 0
-1635 -1666 0
-1635 -1667 0
-1635 -1668 0
-1635 -1669 0
-1635 -1670 0
-1635 -1671 0
-1635 -1672 0
-1635 -1673 0
-1635 -1674 0
-1635 -1675 0
-1635 -1676 0
-1635 -1677 0
-1635 -1678 0
-1635 -1679 0
-1635 -1680 0
-1635 -1681 0
-1635 -1682 0
-1635 -1683 0
-1635 -1684 0
-1635 -1685 0
-1635 -1686 0
-1635 -1687 0
-1635 -1688 0
-1635 -1689 0
-1635 -1690 0
-1635 -1691 0
-1635 -1692 0
-1635 -1693 0
-1635 -1694 0
-1635 -1695 0
-1635 -1696 0
-1635 -1697 0
-1635 -1698 0
-1635 -1699 0
-1635 -1700 0
-1635 -1701 0
-1635 -1702 0
-1635 -1703 0
-1635 -1704 0
-1635 -1705 0
-1635 -1706 0
-1635 -1707 0
-1635 -1708 0
-1635 -1709 0
-1635 -1710 0
-1635 -1711 0
-1635 -1712 0
-1635 -1713 0
-1635 -1714 0
-1635 -1715 0
-1636 -1637 0
-1636 -1638 0
-1636 -1639 0
-1636 -1640 0
-1636 -1641 0
-1636 -1642 0
-1636 -1643 0
-1636 -1644 0
-1636 -1645 0
-1636 -1646 0
-1636 -1647 0
-1636 -1648 0
-1636 -1649 0
-1636 -1650 0
-1636 -1651 0
-1636 -1652 0
-1636 -1653 0
-1636 -1654 0
-1636 -1655 0
-1636 -1656 0
-1636 -1657 0
-1636 -1658 0
-1636 -1659 0
-1636 -1660 0
-1636 -1661 0
-1636 -1662 0
-1636 -1663 0
-1636 -1664 0
-1636 -1665 0
-1636 -1666 0
-1636 -1667 0
-1636 -1668 0
-1636 -1669 0
-1636 -1670 0
-1636 -1671 0
-1636 -1672 0
-1636 -1673 0
-1636 -1674 0
-1636 -1675 0
-1636 -1676 0
-1636 -1677 0
-1636 -1678 0
-1636 -1679 0
-1636 -1680 0
-1636 -1681 0
-1636 -1682 0
-1636 -1683 0
-1636 -1684 0
-1636 -1685 0
-1636 -1686 0
-1636 -1687 0
-1636 -1688 0
-1636 -1689 0
-1636 -1690 0
-1636 -1691 0
-1636 -1692 0
-1636 -1693 0
-1636 -1694 0
-1636 -1695 0
-1636 -1696 0
-1636 -1697 0
-1636 -1698 0
-1636 -1699 0
-1636 -1700 0
-1636 -1701 0
-1636 -1702 0
-1636 -1703 0
-1636 -1704 0
-1636 -1705 0
-1636 -1706 0
-1636 -1707 0
-1636 -1708 0
-1636 -1709 0
-1636 -1710 0
-1636 -1711 0
-1636 -1712 0
-1636 -1713 0
-1636 -1714 0
-1636 -1715 0
-1637 -1638 0
-1637 -1639 0
-1637 -1640 0
-1637 -1641 0
-1637 -1642 0
-1637 -1643 0
-1637 -1644 0
-1637 -1645 0
-1637 -1646 0
-1637 -1647 0
-1637 -1648 0
-1637 -1649 0
-1637 -1650 0
-1637 -1651 0
-1637 -1652 0
-1637 -1653 0
-1637 -1654 0
-1637 -1655 0
-1637 -1656 0
-1637 -1657 0
-1637 -1658 0
-1637 -1659 0
-1637 -1660 0
-1637 -1661 0
-1637 -1662 0
-1637 -1663 0
-1637 -1664 0
-1637 -1665 0
-1637 -1666 0
-1637 -1667 0
-1637 -1668 0
-1637 -1669 0
-1637 -1670 0
-1637 -1671 0
-1637 -1672 0
-1637 -1673 0
-1637 -1674 0
-1637 -1675 0
-1637 -1676 0
-1637 -1677 0
-1637 -1678 0
-1637 -1679 0
-1637 -1680 0
-1637 -1681 0
-1637 -1682 0
-1637 -1683 0
-1637 -1684 0
-1637 -1685 0
-1637 -1686 0
-1637 -1687 0
-1637 -1688 0
-1637 -1689 0
-1637 -1690 0
-1637 -1691 0
-1637 -1692 0
-1637 -1693 0
-1637 -1694 0
-1637 -1695 0
-1637 -1696 0
-1637 -1697 0
-1637 -1698 0
-1637 -1699 0
-1637 -1700 0
-1637 -1701 0
-1637 -1702 0
-1637 -1703 0
-1637 -1704 0
-1637 -1705 0
-1637 -1706 0
-1637 -1707 0
-1637 -1708 0
-1637 -1709 0
-1637 -1710 0
-1637 -1711 0
-1637 -1712 0
-1637 -1713 0
-1637 -1714 0
-1637 -1715 0
-1638 -1639 0
-1638 -1640 0
-1638 -1641 0
-1638 -1642 0
-1638 -1643 0
-1638 -1644 0
-1638 -1645 0
-1638 -1646 0
-1638 -1647 0
-1638 -1648 0
-1638 -1649 0
-1638 -1650 0
-1638 -1651 0
-1638 -1652 0
-1638 -1653 0
-1638 -1654 0
-1638 -1655 0
-1638 -1656 0
-1638 -1657 0
-1638 -1658 0
-1638 -1659 0
-1638 -1660 0
-1638 -1661 0
-1638 -1662 0
-1638 -1663 0
-1638 -1664 0
-1638 -1665 0
-1638 -1666 0
-1638 -1667 0
-1638 -1668 0
-1638 -1669 0
-1638 -1670 0
-1638 -1671 0
-1638 -1672 0
-1638 -1673 0
-1638 -1674 0
-1638 -1675 0
-1638 -1676 0
-1638 -1677 0
-1638 -1678 0
-1638 -1679 0
-1638 -1680 0
-1638 -1681 0
-1638 -1682 0
-1638 -1683 0
-1638 -1684 0
-1638 -1685 0
-1638 -1686 0
-1638 -1687 0
-1638 -1688 0
-1638 -1689 0
-1638 -1690 0
-1638 -1691 0
-1638 -1692 0
-1638 -1693 0
-1638 -1694 0
-1638 -1695 0
-1638 -1696 0
-1638 -1697 0
-1638 -1698 0
-1638 -1699 0
-1638 -1700 0
-1638 -1701 0
-1638 -1702 0
-1638 -1703 0
-1638 -1704 0
-1638 -1705 0
-1638 -1706 0
-1638 -1707 0
-1638 -1708 0
-1638 -1709 0
-1638 -1710 0
-1638 -1711 0
-1638 -1712 0
-1638 -1713 0
-1638 -1714 0
-1638 -1715 0
-1639 -1640 0
-1639 -1641 0
-1639 -1642 0
-1639 -1643 0
-1639 -1644 0
-1639 -1645 0
-1639 -1646 0
-1639 -1647 0
-1639 -1648 0
-1639 -1649 0
-1639 -1650 0
-1639 -1651 0
-1639 -1652 0
-1639 -1653 0
-1639 -1654 0
-1639 -1655 0
-1639 -1656 0
-1639 -1657 0
-1639 -1658 0
-1639 -1659 0
-1639 -1660 0
-1639 -1661 0
-1639 -1662 0
-1639 -1663 0
-1639 -1664 0
-1639 -1665 0
-1639 -1666 0
-1639 -1667 0
-1639 -1668 0
-1639 -1669 0
-1639 -1670 0
-1639 -1671 0
-1639 -1672 0
-1639 -1673 0
-1639 -1674 0
-1639 -1675 0
-1639 -1676 0
-1639 -1677 0
-1639 -1678 0
-1639 -1679 0
-1639 -1680 0
-1639 -1681 0
-1639 -1682 0
-1639 -1683 0
-1639 -1684 0
-1639 -1685 0
-1639 -1686 0
-1639 -1687 0
-1639 -1688 0
-1639 -1689 0
-1639 -1690 0
-1639 -1691 0
-1639 -1692 0
-1639 -1693 0
-1639 -1694 0
-1639 -1695 0
-1639 -1696 0
-1639 -1697 0
-1639 -1698 0
-1639 -1699 0
-1639 -1700 0
-1639 -1701 0
-1639 -1702 0
-1639 -1703 0
-1639 -1704 0
-1639 -1705 0
-1639 -1706 0
-1639 -1707 0
-1639 -1708 0
-1639 -1709 0
-1639 -1710 0
-1639 -1711 0
-1639 -1712 0
-1639 -1713 0
-1639 -1714 0
-1639 -1715 0
-1640 -1641 0
-1640 -1642 0
-1640 -1643 0
-1640 -1644 0
-1640 -1645 0
-1640 -1646 0
-1640 -1647 0
-1640 -1648 0
-1640 -1649 0
-1640 -1650 0
-1640 -1651 0
-1640 -1652 0
-1640 -1653 0
-1640 -1654 0
-1640 -1655 0
-1640 -1656 0
-1640 -1657 0
-1640 -1658 0
-1640 -1659 0
-1640 -1660 0
-1640 -1661 0
-1640 -1662 0
-1640 -1663 0
-1640 -1664 0
-1640 -1665 0
-1640 -1666 0
-1640 -1667 0
-1640 -1668 0
-1640 -1669 0
-1640 -1670 0
-1640 -1671 0
-1640 -1672 0
-1640 -1673 0
-1640 -1674 0
-1640 -1675 0
-1640 -1676 0
-1640 -1677 0
-1640 -1678 0
-1640 -1679 0
-1640 -1680 0
-1640 -1681 0
-1640 -1682 0
-1640 -1683 0
-1640 -1684 0
-1640 -1685 0
-1640 -1686 0
-1640 -1687 0
-1640 -1688 0
-1640 -1689 0
-1640 -1690 0
-1640 -1691 0
-1640 -1692 0
-1640 -1693 0
-1640 -1694 0
-1640 -1695 0
-1640 -1696 0
-1640 -1697 0
-1640 -1698 0
-1640 -1699 0
-1640 -1700 0
-1640 -1701 0
-1640 -1702 0
-1640 -1703 0
-1640 -1704 0
-1640 -1705 0
-1640 -1706 0
-1640 -1707 0
-1640 -1708 0
-1640 -1709 0
-1640 -1710 0
-1640 -1711 0
-1640 -1712 0
-1640 -1713 0
-1640 -1714 0
-1640 -1715 0
-1641 -1642 0
-1641 -1643 0
-1641 -1644 0
-1641 -1645 0
-1641 -1646 0
-1641 -1647 0
-1641 -1648 0
-1641 -1649 0
-1641 -1650 0
-1641 -1651 0
-1641 -1652 0
-1641 -1653 0
-1641 -1654 0
-1641 -1655 0
-1641 -1656 0
-1641 -1657 0
-1641 -1658 0
-1641 -1659 0
-1641 -1660 0
-1641 -1661 0
-1641 -1662 0
-1641 -1663 0
-1641 -1664 0
-1641 -1665 0
-1641 -1666 0
-1641 -1667 0
-1641 -1668 0
-1641 -1669 0
-1641 -1670 0
-1641 -1671 0
-1641 -1672 0
-1641 -1673 0
-1641 -1674 0
-1641 -1675 0
-1641 -1676 0
-1641 -1677 0
-1641 -1678 0
-1641 -1679 0
-1641 -1680 0
-1641 -1681 0
-1641 -1682 0
-1641 -1683 0
-1641 -1684 0
-1641 -1685 0
-1641 -1686 0
-1641 -1687 0
-1641 -1688 0
-1641 -1689 0
-1641 -1690 0
-1641 -1691 0
-1641 -1692 0
-1641 -1693 0
-1641 -1694 0
-1641 -1695 0
-1641 -1696 0
-1641 -1697 0
-1641 -1698 0
-1641 -1699 0
-1641 -1700 0
-1641 -1701 0
-1641 -1702 0
-1641 -1703 0
-1641 -1704 0
-1641 -1705 0
-1641 -1706 0
-1641 -1707 0
-1641 -1708 0
-1641 -1709 0
-1641 -1710 0
-1641 -1711 0
-1641 -1712 0
-1641 -1713 0
-1641 -1714 0
-1641 -1715 0
-1642 -1643 0
-1642 -1644 0
-1642 -1645 0
-1642 -1646 0
-1642 -1647 0
-1642 -1648 0
-1642 -1649 0
-1642 -1650 0
-1642 -1651 0
-1642 -1652 0
-1642 -1653 0
-1642 -1654 0
-1642 -1655 0
-1642 -1656 0
-1642 -1657 0
-1642 -1658 0
-1642 -1659 0
-1642 -1660 0
-1642 -1661 0
-1642 -1662 0
-1642 -1663 0
-1642 -1664 0
-1642 -1665 0
-1642 -1666 0
-1642 -1667 0
-1642 -1668 0
-1642 -1669 0
-1642 -1670 0
-1642 -1671 0
-1642 -1672 0
-1642 -1673 0
-1642 -1674 0
-1642 -1675 0
-1642 -1676 0
-1642 -1677 0
-1642 -1678 0
-1642 -1679 0
-1642 -1680 0
-1642 -1681 0
-1642 -1682 0
-1642 -1683 0
-1642 -1684 0
-1642 -1685 0
-1642 -1686 0
-1642 -1687 0
-1642 -1688 0
-1642 -1689 0
-1642 -1690 0
-1642 -1691 0
-1642 -1692 0
-1642 -1693 0
-1642 -1694 0
-1642 -1695 0
-1642 -1696 0
-1642 -1697 0
-1642 -1698 0
-1642 -1699 0
-1642 -1700 0
-1642 -1701 0
-1642 -1702 0
-1642 -1703 0
-1642 -1704 0
-1642 -1705 0
-1642 -1706 0
-1642 -1707 0
-1642 -1708 0
-1642 -1709 0
-1642 -1710 0
-1642 -1711 0
-1642 -1712 0
-1642 -1713 0
-1642 -1714 0
-1642 -1715 0
-1643 -1644 0
-1643 -1645 0
-1643 -1646 0
-1643 -1647 0
-1643 -1648 0
-1643 -1649 0
-1643 -1650 0
-1643 -1651 0
-1643 -1652 0
-1643 -1653 0
-1643 -1654 0
-1643 -1655 0
-1643 -1656 0
-1643 -1657 0
-1643 -1658 0
-1643 -1659 0
-1643 -1660 0
-1643 -1661 0
-1643 -1662 0
-1643 -1663 0
-1643 -1664 0
-1643 -1665 0
-1643 -1666 0
-1643 -1667 0
-1643 -1668 0
-1643 -1669 0
-1643 -1670 0
-1643 -1671 0
-1643 -1672 0
-1643 -1673 0
-1643 -1674 0
-1643 -1675 0
-1643 -1676 0
-1643 -1677 0
-1643 -1678 0
-1643 -1679 0
-1643 -1680 0
-1643 -1681 0
-1643 -1682 0
-1643 -1683 0
-1643 -1684 0
-1643 -1685 0
-1643 -1686 0
-1643 -1687 0
-1643 -1688 0
-1643 -1689 0
-1643 -1690 0
-1643 -1691 0
-1643 -1692 0
-1643 -1693 0
-1643 -1694 0
-1643 -1695 0
-1643 -1696 0
-1643 -1697 0
-1643 -1698 0
-1643 -1699 0
-1643 -1700 0
-1643 -1701 0
-1643 -1702 0
-1643 -1703 0
-1643 -1704 0
-1643 -1705 0
-1643 -1706 0
-1643 -1707 0
-1643 -1708 0
-1643 -1709 0
-1643 -1710 0
-1643 -1711 0
-1643 -1712 0
-1643 -1713 0
-1643 -1714 0
-1643 -1715 0
-1644 -1645 0
-1644 -1646 0
-1644 -1647 0
-1644 -1648 0
-1644 -1649 0
-1644 -1650 0
-1644 -1651 0
-1644 -1652 0
-1644 -1653 0
-1644 -1654 0
-1644 -1655 0
-1644 -1656 0
-1644 -1657 0
-1644 -1658 0
-1644 -1659 0
-1644 -1660 0
-1644 -1661 0
-1644 -1662 0
-1644 -1663 0
-1644 -1664 0
-1644 -1665 0
-1644 -1666 0
-1644 -1667 0
-1644 -1668 0
-1644 -1669 0
-1644 -1670 0
-1644 -1671 0
-1644 -1672 0
-1644 -1673 0
-1644 -1674 0
-1644 -1675 0
-1644 -1676 0
-1644 -1677 0
-1644 -1678 0
-1644 -1679 0
-1644 -1680 0
-1644 -1681 0
-1644 -1682 0
-1644 -1683 0
-1644 -1684 0
-1644 -1685 0
-1644 -1686 0
-1644 -1687 0
-1644 -1688 0
-1644 -1689 0
-1644 -1690 0
-1644 -1691 0
-1644 -1692 0
-1644 -1693 0
-1644 -1694 0
-1644 -1695 0
-1644 -1696 0
-1644 -1697 0
-1644 -1698 0
-1644 -1699 0
-1644 -1700 0
-1644 -1701 0
-1644 -1702 0
-1644 -1703 0
-1644 -1704 0
-1644 -1705 0
-1644 -1706 0
-1644 -1707 0
-1644 -1708 0
-1644 -1709 0
-1644 -1710 0
-1644 -1711 0
-1644 -1712 0
-1644 -1713 0
-1644 -1714 0
-1644 -1715 0
-1645 -1646 0
-1645 -1647 0
-1645 -1648 0
-1645 -1649 0
-1645 -1650 0
-1645 -1651 0
-1645 -1652 0
-1645 -1653 0
-1645 -1654 0
-1645 -1655 0
-1645 -1656 0
-1645 -1657 0
-1645 -1658 0
-1645 -1659 0
-1645 -1660 0
-1645 -1661 0
-1645 -1662 0
-1645 -1663 0
-1645 -1664 0
-1645 -1665 0
-1645 -1666 0
-1645 -1667 0
-1645 -1668 0
-1645 -1669 0
-1645 -1670 0
-1645 -1671 0
-1645 -1672 0
-1645 -1673 0
-1645 -1674 0
-1645 -1675 0
-1645 -1676 0
-1645 -1677 0
-1645 -1678 0
-1645 -1679 0
-1645 -1680 0
-1645 -1681 0
-1645 -1682 0
-1645 -1683 0
-1645 -1684 0
-1645 -1685 0
-1645 -1686 0
-1645 -1687 0
-1645 -1688 0
-1645 -1689 0
-1645 -1690 0
-1645 -1691 0
-1645 -1692 0
-1645 -1693 0
-1645 -1694 0
-1645 -1695 0
-1645 -1696 0
-1645 -1697 0
-1645 -1698 0
-1645 -1699 0
-1645 -1700 0
-1645 -1701 0
-1645 -1702 0
-1645 -1703 0
-1645 -1704 0
-1645 -1705 0
-1645 -1706 0
-1645 -1707 0
-1645 -1708 0
-1645 -1709 0
-1645 -1710 0
-1645 -1711 0
-1645 -1712 0
-1645 -1713 0
-1645 -1714 0
-1645 -1715 0
-1646 -1647 0
-1646 -1648 0
-1646 -1649 0
-1646 -1650 0
-1646 -1651 0
-1646 -1652 0
-1646 -1653 0
-1646 -1654 0
-1646 -1655 0
-1646 -1656 0
-1646 -1657 0
-1646 -1658 0
-1646 -1659 0
-1646 -1660 0
-1646 -1661 0
-1646 -1662 0
-1646 -1663 0
-1646 -1664 0
-1646 -1665 0
-1646 -1666 0
-1646 -1667 0
-1646 -1668 0
-1646 -1669 0
-1646 -1670 0
-1646 -1671 0
-1646 -1672 0
-1646 -1673 0
-1646 -1674 0
-1646 -1675 0
-1646 -1676 0
-1646 -1677 0
-1646 -1678 0
-1646 -1679 0
-1646 -1680 0
-1646 -1681 0
-1646 -1682 0
-1646 -1683 0
-1646 -1684 0
-1646 -1685 0
-1646 -1686 0
-1646 -1687 0
-1646 -1688 0
-1646 -1689 0
-1646 -1690 0
-1646 -1691 0
-1646 -1692 0
-1646 -1693 0
-1646 -1694 0
-1646 -1695 0
-1646 -1696 0
-1646 -1697 0
-1646 -1698 0
-1646 -1699 0
-1646 -1700 0
-1646 -1701 0
-1646 -1702 0
-1646 -1703 0
-1646 -1704 0
-1646 -1705 0
-1646 -1706 0
-1646 -1707 0
-1646 -1708 0
-1646 -1709 0
-1646 -1710 0
-1646 -1711 0
-1646 -1712 0
-1646 -1713 0
-1646 -1714 0
-1646 -1715 0
-1647 -1648 0
-1647 -1649 0
-1647 -1650 0
-1647 -1651 0
-1647 -1652 0
-1647 -1653 0
-1647 -1654 0
-1647 -1655 0
-1647 -1656 0
-1647 -1657 0
-1647 -1658 0
-1647 -1659 0
-1647 -1660 0
-1647 -1661 0
-1647 -1662 0
-1647 -1663 0
-1647 -1664 0
-1647 -1665 0
-1647 -1666 0
-1647 -1667 0
-1647 -1668 0
-1647 -1669 0
-1647 -1670 0
-1647 -1671 0
-1647 -1672 0
-1647 -1673 0
-1647 -1674 0
-1647 -1675 0
-1647 -1676 0
-1647 -1677 0
-1647 -1678 0
-1647 -1679 0
-1647 -1680 0
-1647 -1681 0
-1647 -1682 0
-1647 -1683 0
-1647 -1684 0
-1647 -1685 0
-1647 -1686 0
-1647 -1687 0
-1647 -1688 0
-1647 -1689 0
-1647 -1690 0
-1647 -1691 0
-1647 -1692 0
-1647 -1693 0
-1647 -1694 0
-1647 -1695 0
-1647 -1696 0
-1647 -1697 0
-1647 -1698 0
-1647 -1699 0
-1647 -1700 0
-1647 -1701 0
-1647 -1702 0
-1647 -1703 0
-1647 -1704 0
-1647 -1705 0
-1647 -1706 0
-1647 -1707 0
-1647 -1708 0
-1647 -1709 0
-1647 -1710 0
-1647 -1711 0
-1647 -1712 0
-1647 -1713 0
-1647 -1714 0
-1647 -1715 0
-1648 -1649 0
-1648 -1650 0
-1648 -1651 0
-1648 -1652 0
-1648 -1653 0
-1648 -1654 0
-1648 -1655 0
-1648 -1656 0
-1648 -1657 0
-1648 -1658 0
-1648 -1659 0
-1648 -1660 0
-1648 -1661 0
-1648 -1662 0
-1648 -1663 0
-1648 -1664 0
-1648 -1665 0
-1648 -1666 0
-1648 -1667 0
-1648 -1668 0
-1648 -1669 0
-1648 -1670 0
-1648 -1671 0
-1648 -1672 0
-1648 -1673 0
-1648 -1674 0
-1648 -1675 0
-1648 -1676 0
-1648 -1677 0
-1648 -1678 0
-1648 -1679 0
-1648 -1680 0
-1648 -1681 0
-1648 -1682 0
-1648 -1683 0
-1648 -1684 0
-1648 -1685 0
-1648 -1686 0
-1648 -1687 0
-1648 -1688 0
-1648 -1689 0
-1648 -1690 0
-1648 -1691 0
-1648 -1692 0
-1648 -1693 0
-1648 -1694 0
-1648 -1695 0
-1648 -1696 0
-1648 -1697 0
-1648 -1698 0
-1648 -1699 0
-1648 -1700 0
-1648 -1701 0
-1648 -1702 0
-1648 -1703 0
-1648 -1704 0
-1648 -1705 0
-1648 -1706 0
-1648 -1707 0
-1648 -1708 0
-1648 -1709 0
-1648 -1710 0
-1648 -1711 0
-1648 -1712 0
-1648 -1713 0
-1648 -1714 0
-1648 -1715 0
-1649 -1650 0
-1649 -1651 0
-1649 -1652 0
-1649 -1653 0
-1649 -1654 0
-1649 -1655 0
-1649 -1656 0
-1649 -1657 0
-1649 -1658 0
-1649 -1659 0
-1649 -1660 0
-1649 -1661 0
-1649 -1662 0
-1649 -1663 0
-1649 -1664 0
-1649 -1665 0
-1649 -1666 0
-1649 -1667 0
-1649 -1668 0
-1649 -1669 0
-1649 -1670 0
-1649 -1671 0
-1649 -1672 0
-1649 -1673 0
-1649 -1674 0
-1649 -1675 0
-1649 -1676 0
-1649 -1677 0
-1649 -1678 0
-1649 -1679 0
-1649 -1680 0
-1649 -1681 0
-1649 -1682 0
-1649 -1683 0
-1649 -1684 0
-1649 -1685 0
-1649 -1686 0
-1649 -1687 0
-1649 -1688 0
-1649 -1689 0
-1649 -1690 0
-1649 -1691 0
-1649 -1692 0
-1649 -1693 0
-1649 -1694 0
-1649 -1695 0
-1649 -1696 0
-1649 -1697 0
-1649 -1698 0
-1649 -1699 0
-1649 -1700 0
-1649 -1701 0
-1649 -1702 0
-1649 -1703 0
-1649 -1704 0
-1649 -1705 0
-1649 -1706 0
-1649 -1707 0
-1649 -1708 0
-1649 -1709 0
-1649 -1710 0
-1649 -1711 0
-1649 -1712 0
-1649 -1713 0
-1649 -1714 0
-1649 -1715 0
-1650 -1651 0
-1650 -1652 0
-1650 -1653 0
-1650 -1654 0
-1650 -1655 0
-1650 -1656 0
-1650 -1657 0
-1650 -1658 0
-1650 -1659 0
-1650 -1660 0
-1650 -1661 0
-1650 -1662 0
-1650 -1663 0
-1650 -1664 0
-1650 -1665 0
-1650 -1666 0
-1650 -1667 0
-1650 -1668 0
-1650 -1669 0
-1650 -1670 0
-1650 -1671 0
-1650 -1672 0
-1650 -1673 0
-1650 -1674 0
-1650 -1675 0
-1650 -1676 0
-1650 -1677 0
-1650 -1678 0
-1650 -1679 0
-1650 -1680 0
-1650 -1681 0
-1650 -1682 0
-1650 -1683 0
-1650 -1684 0
-1650 -1685 0
-1650 -1686 0
-1650 -1687 0
-1650 -1688 0
-1650 -1689 0
-1650 -1690 0
-1650 -1691 0
-1650 -1692 0
-1650 -1693 0
-1650 -1694 0
-1650 -1695 0
-1650 -1696 0
-1650 -1697 0
-1650 -1698 0
-1650 -1699 0
-1650 -1700 0
-1650 -1701 0
-1650 -1702 0
-1650 -1703 0
-1650 -1704 0
-1650 -1705 0
-1650 -1706 0
-1650 -1707 0
-1650 -1708 0
-1650 -1709 0
-1650 -1710 0
-1650 -1711 0
-1650 -1712 0
-1650 -1713 0
-1650 -1714 0
-1650 -1715 0
-1651 -1652 0
-1651 -1653 0
-1651 -1654 0
-1651 -1655 0
-1651 -1656 0
-1651 -1657 0
-1651 -1658 0
-1651 -1659 0
-1651 -1660 0
-1651 -1661 0
-1651 -1662 0
-1651 -1663 0
-1651 -1664 0
-1651 -1665 0
-1651 -1666 0
-1651 -1667 0
-1651 -1668 0
-1651 -1669 0
-1651 -1670 0
-1651 -1671 0
-1651 -1672 0
-1651 -1673 0
-1651 -1674 0
-1651 -1675 0
-1651 -1676 0
-1651 -1677 0
-1651 -1678 0
-1651 -1679 0
-1651 -1680 0
-1651 -1681 0
-1651 -1682 0
-1651 -1683 0
-1651 -1684 0
-1651 -1685 0
-1651 -1686 0
-1651 -1687 0
-1651 -1688 0
-1651 -1689 0
-1651 -1690 0
-1651 -1691 0
-1651 -1692 0
-1651 -1693 0
-1651 -1694 0
-1651 -1695 0
-1651 -1696 0
-1651 -1697 0
-1651 -1698 0
-1651 -1699 0
-1651 -1700 0
-1651 -1701 0
-1651 -1702 0
-1651 -1703 0
-1651 -1704 0
-1651 -1705 0
-1651 -1706 0
-1651 -1707 0
-1651 -1708 0
-1651 -1709 0
-1651 -1710 0
-1651 -1711 0
-1651 -1712 0
-1651 -1713 0
-1651 -1714 0
-1651 -1715 0
-1652 -1653 0
-1652 -1654 0
-1652 -1655 0
-1652 -1656 0
-1652 -1657 0
-1652 -1658 0
-1652 -1659 0
-1652 -1660 0
-1652 -1661 0
-1652 -1662 0
-1652 -1663 0
-1652 -1664 0
-1652 -1665 0
-1652 -1666 0
-1652 -1667 0
-1652 -1668 0
-1652 -1669 0
-1652 -1670 0
-1652 -1671 0
-1652 -1672 0
-1652 -1673 0
-1652 -1674 0
-1652 -1675 0
-1652 -1676 0
-1652 -1677 0
-1652 -1678 0
-1652 -1679 0
-1652 -1680 0
-1652 -1681 0
-1652 -1682 0
-1652 -1683 0
-1652 -1684 0
-1652 -1685 0
-1652 -1686 0
-1652 -1687 0
-1652 -1688 0
-1652 -1689 0
-1652 -1690 0
-1652 -1691 0
-1652 -1692 0
-1652 -1693 0
-1652 -1694 0
-1652 -1695 0
-1652 -1696 0
-1652 -1697 0
-1652 -1698 0
-1652 -1699 0
-1652 -1700 0
-1652 -1701 0
-1652 -1702 0
-1652 -1703 0
-1652 -1704 0
-1652 -1705 0
-1652 -1706 0
-1652 -1707 0
-1652 -1708 0
-1652 -1709 0
-1652 -1710 0
-1652 -1711 0
-1652 -1712 0
-1652 -1713 0
-1652 -1714 0
-1652 -1715 0
-1653 -1654 0
-1653 -1655 0
-1653 -1656 0
-1653 -1657 0
-1653 -1658 0
-1653 -1659 0
-1653 -1660 0
-1653 -1661 0
-1653 -1662 0
-1653 -1663 0
-1653 -1664 0
-1653 -1665 0
-1653 -1666 0
-1653 -1667 0
-1653 -1668 0
-1653 -1669 0
-1653 -1670 0
-1653 -1671 0
-1653 -1672 0
-1653 -1673 0
-1653 -1674 0
-1653 -1675 0
-1653 -1676 0
-1653 -1677 0
-1653 -1678 0
-1653 -1679 0
-1653 -1680 0
-1653 -1681 0
-1653 -1682 0
-1653 -1683 0
-1653 -1684 0
-1653 -1685 0
-1653 -1686 0
-1653 -1687 0
-1653 -1688 0
-1653 -1689 0
-1653 -1690 0
-1653 -1691 0
-1653 -1692 0
-1653 -1693 0
-1653 -1694 0
-1653 -1695 0
-1653 -1696 0
-1653 -1697 0
-1653 -1698 0
-1653 -1699 0
-1653 -1700 0
-1653 -1701 0
-1653 -1702 0
-1653 -1703 0
-1653 -1704 0
-1653 -1705 0
-1653 -1706 0
-1653 -1707 0
-1653 -1708 0
-1653 -1709 0
-1653 -1710 0
-1653 -1711 0
-1653 -1712 0
-1653 -1713 0
-1653 -1714 0
-1653 -1715 0
-1654 -1655 0
-1654 -1656 0
-1654 -1657 0
-1654 -1658 0
-1654 -1659 0
-1654 -1660 0
-1654 -1661 0
-1654 -1662 0
-1654 -1663 0
-1654 -1664 0
-1654 -1665 0
-1654 -1666 0
-1654 -1667 0
-1654 -1668 0
-1654 -1669 0
-1654 -1670 0
-1654 -1671 0
-1654 -1672 0
-1654 -1673 0
-1654 -1674 0
-1654 -1675 0
-1654 -1676 0
-1654 -1677 0
-1654 -1678 0
-1654 -1679 0
-1654 -1680 0
-1654 -1681 0
-1654 -1682 0
-1654 -1683 0
-1654 -1684 0
-1654 -1685 0
-1654 -1686 0
-1654 -1687 0
-1654 -1688 0
-1654 -1689 0
-1654 -1690 0
-1654 -1691 0
-1654 -1692 0
-1654 -1693 0
-1654 -1694 0
-1654 -1695 0
-1654 -1696 0
-1654 -1697 0
-1654 -1698 0
-1654 -1699 0
-1654 -1700 0
-1654 -1701 0
-1654 -1702 0
-1654 -1703 0
-1654 -1704 0
-1654 -1705 0
-1654 -1706 0
-1654 -1707 0
-1654 -1708 0
-1654 -1709 0
-1654 -1710 0
-1654 -1711 0
-1654 -1712 0
-1654 -1713 0
-1654 -1714 0
-1654 -1715 0
-1655 -1656 0
-1655 -1657 0
-1655 -1658 0
-1655 -1659 0
-1655 -1660 0
-1655 -1661 0
-1655 -1662 0
-1655 -1663 0
-1655 -1664 0
-1655 -1665 0
-1655 -1666 0
-1655 -1667 0
-1655 -1668 0
-1655 -1669 0
-1655 -1670 0
-1655 -1671 0
-1655 -1672 0
-1655 -1673 0
-1655 -1674 0
-1655 -1675 0
-1655 -1676 0
-1655 -1677 0
-1655 -1678 0
-1655 -1679 0
-1655 -1680 0
-1655 -1681 0
-1655 -1682 0
-1655 -1683 0
-1655 -1684 0
-1655 -1685 0
-1655 -1686 0
-1655 -1687 0
-1655 -1688 0
-1655 -1689 0
-1655 -1690 0
-1655 -1691 0
-1655 -1692 0
-1655 -1693 0
-1655 -1694 0
-1655 -1695 0
-1655 -1696 0
-1655 -1697 0
-1655 -1698 0
-1655 -1699 0
-1655 -1700 0
-1655 -1701 0
-1655 -1702 0
-1655 -1703 0
-1655 -1704 0
-1655 -1705 0
-1655 -1706 0
-1655 -1707 0
-1655 -1708 0
-1655 -1709 0
-1655 -1710 0
-1655 -1711 0
-1655 -1712 0
-1655 -1713 0
-1655 -1714 0
-1655 -1715 0
-1656 -1657 0
-1656 -1658 0
-1656 -1659 0
-1656 -1660 0
-1656 -1661 0
-1656 -1662 0
-1656 -1663 0
-1656 -1664 0
-1656 -1665 0
-1656 -1666 0
-1656 -1667 0
-1656 -1668 0
-1656 -1669 0
-1656 -1670 0
-1656 -1671 0
-1656 -1672 0
-1656 -1673 0
-1656 -1674 0
-1656 -1675 0
-1656 -1676 0
-1656 -1677 0
-1656 -1678 0
-1656 -1679 0
-1656 -1680 0
-1656 -1681 0
-1656 -1682 0
-1656 -1683 0
-1656 -1684 0
-1656 -1685 0
-1656 -1686 0
-1656 -1687 0
-1656 -1688 0
-1656 -1689 0
-1656 -1690 0
-1656 -1691 0
-1656 -1692 0
-1656 -1693 0
-1656 -1694 0
-1656 -1695 0
-1656 -1696 0
-1656 -1697 0
-1656 -1698 0
-1656 -1699 0
-1656 -1700 0
-1656 -1701 0
-1656 -1702 0
-1656 -1703 0
-1656 -1704 0
-1656 -1705 0
-1656 -1706 0
-1656 -1707 0
-1656 -1708 0
-1656 -1709 0
-1656 -1710 0
-1656 -1711 0
-1656 -1712 0
-1656 -1713 0
-1656 -1714 0
-1656 -1715 0
-1657 -1658 0
-1657 -1659 0
-1657 -1660 0
-1657 -1661 0
-1657 -1662 0
-1657 -1663 0
-1657 -1664 0
-1657 -1665 0
-1657 -1666 0
-1657 -1667 0
-1657 -1668 0
-1657 -1669 0
-1657 -1670 0
-1657 -1671 0
-1657 -1672 0
-1657 -1673 0
-1657 -1674 0
-1657 -1675 0
-1657 -1676 0
-1657 -1677 0
-1657 -1678 0
-1657 -1679 0
-1657 -1680 0
-1657 -1681 0
-1657 -1682 0
-1657 -1683 0
-1657 -1684 0
-1657 -1685 0
-1657 -1686 0
-1657 -1687 0
-1657 -1688 0
-1657 -1689 0
-1657 -1690 0
-1657 -1691 0
-1657 -1692 0
-1657 -1693 0
-1657 -1694 0
-1657 -1695 0
-1657 -1696 0
-1657 -1697 0
-1657 -1698 0
-1657 -1699 0
-1657 -1700 0
-1657 -1701 0
-1657 -1702 0
-1657 -1703 0
-1657 -1704 0
-1657 -1705 0
-1657 -1706 0
-1657 -1707 0
-1657 -1708 0
-1657 -1709 0
-1657 -1710 0
-1657 -1711 0
-1657 -1712 0
-1657 -1713 0
-1657 -1714 0
-1657 -1715 0
-1658 -1659 0
-1658 -1660 0
-1658 -1661 0
-1658 -1662 0
-1658 -1663 0
-1658 -1664 0
-1658 -1665 0
-1658 -1666 0
-1658 -1667 0
-1658 -1668 0
-1658 -1669 0
-1658 -1670 0
-1658 -1671 0
-1658 -1672 0
-1658 -1673 0
-1658 -1674 0
-1658 -1675 0
-1658 -1676 0
-1658 -1677 0
-1658 -1678 0
-1658 -1679 0
-1658 -1680 0
-1658 -1681 0
-1658 -1682 0
-1658 -1683 0
-1658 -1684 0
-1658 -1685 0
-1658 -1686 0
-1658 -1687 0
-1658 -1688 0
-1658 -1689 0
-1658 -1690 0
-1658 -1691 0
-1658 -1692 0
-1658 -1693 0
-1658 -1694 0
-1658 -1695 0
-1658 -1696 0
-1658 -1697 0
-1658 -1698 0
-1658 -1699 0
-1658 -1700 0
-1658 -1701 0
-1658 -1702 0
-1658 -1703 0
-1658 -1704 0
-1658 -1705 0
-1658 -1706 0
-1658 -1707 0
-1658 -1708 0
-1658 -1709 0
-1658 -1710 0
-1658 -1711 0
-1658 -1712 0
-1658 -1713 0
-1658 -1714 0
-1658 -1715 0
-1659 -1660 0
-1659 -1661 0
-1659 -1662 0
-1659 -1663 0
-1659 -1664 0
-1659 -1665 0
-1659 -1666 0
-1659 -1667 0
-1659 -1668 0
-1659 -1669 0
-1659 -1670 0
-1659 -1671 0
-1659 -1672 0
-1659 -1673 0
-1659 -1674 0
-1659 -1675 0
-1659 -1676 0
-1659 -1677 0
-1659 -1678 0
-1659 -1679 0
-1659 -1680 0
-1659 -1681 0
-1659 -1682 0
-1659 -1683 0
-1659 -1684 0
-1659 -1685 0
-1659 -1686 0
-1659 -1687 0
-1659 -1688 0
-1659 -1689 0
-1659 -1690 0
-1659 -1691 0
-1659 -1692 0
-1659 -1693 0
-1659 -1694 0
-1659 -1695 0
-1659 -1696 0
-1659 -1697 0
-1659 -1698 0
-1659 -1699 0
-1659 -1700 0
-1659 -1701 0
-1659 -1702 0
-1659 -1703 0
-1659 -1704 0
-1659 -1705 0
-1659 -1706 0
-1659 -1707 0
-1659 -1708 0
-1659 -1709 0
-1659 -1710 0
-1659 -1711 0
-1659 -1712 0
-1659 -1713 0
-1659 -1714 0
-1659 -1715 0
-1660 -1661 0
-1660 -1662 0
-1660 -1663 0
-1660 -1664 0
-1660 -1665 0
-1660 -1666 0
-1660 -1667 0
-1660 -1668 0
-1660 -1669 0
-1660 -1670 0
-1660 -1671 0
-1660 -1672 0
-1660 -1673 0
-1660 -1674 0
-1660 -1675 0
-1660 -1676 0
-1660 -1677 0
-1660 -1678 0
-1660 -1679 0
-1660 -1680 0
-1660 -1681 0
-1660 -1682 0
-1660 -1683 0
-1660 -1684 0
-1660 -1685 0
-1660 -1686 0
-1660 -1687 0
-1660 -1688 0
-1660 -1689 0
-1660 -1690 0
-1660 -1691 0
-1660 -1692 0
-1660 -1693 0
-1660 -1694 0
-1660 -1695 0
-1660 -1696 0
-1660 -1697 0
-1660 -1698 0
-1660 -1699 0
-1660 -1700 0
-1660 -1701 0
-1660 -1702 0
-1660 -1703 0
-1660 -1704 0
-1660 -1705 0
-1660 -1706 0
-1660 -1707 0
-1660 -1708 0
-1660 -1709 0
-1660 -1710 0
-1660 -1711 0
-1660 -1712 0
-1660 -1713 0
-1660 -1714 0
-1660 -1715 0
-1661 -1662 0
-1661 -1663 0
-1661 -1664 0
-1661 -1665 0
-1661 -1666 0
-1661 -1667 0
-1661 -1668 0
-1661 -1669 0
-1661 -1670 0
-1661 -1671 0
-1661 -1672 0
-1661 -1673 0
-1661 -1674 0
-1661 -1675 0
-1661 -1676 0
-1661 -1677 0
-1661 -1678 0
-1661 -1679 0
-1661 -1680 0
-1661 -1681 0
-1661 -1682 0
-1661 -1683 0
-1661 -1684 0
-1661 -1685 0
-1661 -1686 0
-1661 -1687 0
-1661 -1688 0
-1661 -1689 0
-1661 -1690 0
-1661 -1691 0
-1661 -1692 0
-1661 -1693 0
-1661 -1694 0
-1661 -1695 0
-1661 -1696 0
-1661 -1697 0
-1661 -1698 0
-1661 -1699 0
-1661 -1700 0
-1661 -1701 0
-1661 -1702 0
-1661 -1703 0
-1661 -1704 0
-1661 -1705 0
-1661 -1706 0
-1661 -1707 0
-1661 -1708 0
-1661 -1709 0
-1661 -1710 0
-1661 -1711 0
-1661 -1712 0
-1661 -1713 0
-1661 -1714 0
-1661 -1715 0
-1662 -1663 0
-1662 -1664 0
-1662 -1665 0
-1662 -1666 0
-1662 -1667 0
-1662 -1668 0
-1662 -1669 0
-1662 -1670 0
-1662 -1671 0
-1662 -1672 0
-1662 -1673 0
-1662 -1674 0
-1662 -1675 0
-1662 -1676 0
-1662 -1677 0
-1662 -1678 0
-1662 -1679 0
-1662 -1680 0
-1662 -1681 0
-1662 -1682 0
-1662 -1683 0
-1662 -1684 0
-1662 -1685 0
-1662 -1686 0
-1662 -1687 0
-1662 -1688 0
-1662 -1689 0
-1662 -1690 0
-1662 -1691 0
-1662 -1692 0
-1662 -1693 0
-1662 -1694 0
-1662 -1695 0
-1662 -1696 0
-1662 -1697 0
-1662 -1698 0
-1662 -1699 0
-1662 -1700 0
-1662 -1701 0
-1662 -1702 0
-1662 -1703 0
-1662 -1704 0
-1662 -1705 0
-1662 -1706 0
-1662 -1707 0
-1662 -1708 0
-1662 -1709 0
-1662 -1710 0
-1662 -1711 0
-1662 -1712 0
-1662 -1713 0
-1662 -1714 0
-1662 -1715 0
-1663 -1664 0
-1663 -1665 0
-1663 -1666 0
-1663 -1667 0
-1663 -1668 0
-1663 -1669 0
-1663 -1670 0
-1663 -1671 0
-1663 -1672 0
-1663 -1673 0
-1663 -1674 0
-1663 -1675 0
-1663 -1676 0
-1663 -1677 0
-1663 -1678 0
-1663 -1679 0
-1663 -1680 0
-1663 -1681 0
-1663 -1682 0
-1663 -1683 0
-1663 -1684 0
-1663 -1685 0
-1663 -1686 0
-1663 -1687 0
-1663 -1688 0
-1663 -1689 0
-1663 -1690 0
-1663 -1691 0
-1663 -1692 0
-1663 -1693 0
-1663 -1694 0
-1663 -1695 0
-1663 -1696 0
-1663 -1697 0
-1663 -1698 0
-1663 -1699 0
-1663 -1700 0
-1663 -1701 0
-1663 -1702 0
-1663 -1703 0
-1663 -1704 0
-1663 -1705 0
-1663 -1706 0
-1663 -1707 0
-1663 -1708 0
-1663 -1709 0
-1663 -1710 0
-1663 -1711 0
-1663 -1712 0
-1663 -1713 0
-1663 -1714 0
-1663 -1715 0
-1664 -1665 0
-1664 -1666 0
-1664 -1667 0
-1664 -1668 0
-1664 -1669 0
-1664 -1670 0
-1664 -1671 0
-1664 -1672 0
-1664 -1673 0
-1664 -1674 0
-1664 -1675 0
-1664 -1676 0
-1664 -1677 0
-1664 -1678 0
-1664 -1679 0
-1664 -1680 0
-1664 -1681 0
-1664 -1682 0
-1664 -1683 0
-1664 -1684 0
-1664 -1685 0
-1664 -1686 0
-1664 -1687 0
-1664 -1688 0
-1664 -1689 0
-1664 -1690 0
-1664 -1691 0
-1664 -1692 0
-1664 -1693 0
-1664 -1694 0
-1664 -1695 0
-1664 -1696 0
-1664 -1697 0
-1664 -1698 0
-1664 -1699 0
-1664 -1700 0
-1664 -1701 0
-1664 -1702 0
-1664 -1703 0
-1664 -1704 0
-1664 -1705 0
-1664 -1706 0
-1664 -1707 0
-1664 -1708 0
-1664 -1709 0
-1664 -1710 0
-1664 -1711 0
-1664 -1712 0
-1664 -1713 0
-1664 -1714 0
-1664 -1715 0
-1665 -1666 0
-1665 -1667 0
-1665 -1668 0
-1665 -1669 0
-1665 -1670 0
-1665 -1671 0
-1665 -1672 0
-1665 -1673 0
-1665 -1674 0
-1665 -1675 0
-1665 -1676 0
-1665 -1677 0
-1665 -1678 0
-1665 -1679 0
-1665 -1680 0
-1665 -1681 0
-1665 -1682 0
-1665 -1683 0
-1665 -1684 0
-1665 -1685 0
-1665 -1686 0
-1665 -1687 0
-1665 -1688 0
-1665 -1689 0
-1665 -1690 0
-1665 -1691 0
-1665 -1692 0
-1665 -1693 0
-1665 -1694 0
-1665 -1695 0
-1665 -1696 0
-1665 -1697 0
-1665 -1698 0
-1665 -1699 0
-1665 -1700 0
-1665 -1701 0
-1665 -1702 0
-1665 -1703 0
-1665 -1704 0
-1665 -1705 0
-1665 -1706 0
-1665 -1707 0
-1665 -1708 0
-1665 -1709 0
-1665 -1710 0
-1665 -1711 0
-1665 -1712 0
-1665 -1713 0
-1665 -1714 0
-1665 -1715 0
-1666 -1667 0
-1666 -1668 0
-1666 -1669 0
-1666 -1670 0
-1666 -1671 0
-1666 -1672 0
-1666 -1673 0
-1666 -1674 0
-1666 -1675 0
-1666 -1676 0
-1666 -1677 0
-1666 -1678 0
-1666 -1679 0
-1666 -1680 0
-1666 -1681 0
-1666 -1682 0
-1666 -1683 0
-1666 -1684 0
-1666 -1685 0
-1666 -1686 0
-1666 -1687 0
-1666 -1688 0
-1666 -1689 0
-1666 -1690 0
-1666 -1691 0
-1666 -1692 0
-1666 -1693 0
-1666 -1694 0
-1666 -1695 0
-1666 -1696 0
-1666 -1697 0
-1666 -1698 0
-1666 -1699 0
-1666 -1700 0
-1666 -1701 0
-1666 -1702 0
-1666 -1703 0
-1666 -1704 0
-1666 -1705 0
-1666 -1706 0
-1666 -1707 0
-1666 -1708 0
-1666 -1709 0
-1666 -1710 0
-1666 -1711 0
-1666 -1712 0
-1666 -1713 0
-1666 -1714 0
-1666 -1715 0
-1667 -1668 0
-1667 -1669 0
-1667 -1670 0
-1667 -1671 0
-1667 -1672 0
-1667 -1673 0
-1667 -1674 0
-1667 -1675 0
-1667 -1676 0
-1667 -1677 0
-1667 -1678 0
-1667 -1679 0
-1667 -1680 0
-1667 -1681 0
-1667 -1682 0
-1667 -1683 0
-1667 -1684 0
-1667 -1685 0
-1667 -1686 0
-1667 -1687 0
-1667 -1688 0
-1667 -1689 0
-1667 -1690 0
-1667 -1691 0
-1667 -1692 0
-1667 -1693 0
-1667 -1694 0
-1667 -1695 0
-1667 -1696 0
-1667 -1697 0
-1667 -1698 0
-1667 -1699 0
-1667 -1700 0
-1667 -1701 0
-1667 -1702 0
-1667 -1703 0
-1667 -1704 0
-1667 -1705 0
-1667 -1706 0
-1667 -1707 0
-1667 -1708 0
-1667 -1709 0
-1667 -1710 0
-1667 -1711 0
-1667 -1712 0
-1667 -1713 0
-1667 -1714 0
-1667 -1715 0
-1668 -1669 0
-1668 -1670 0
-1668 -1671 0
-1668 -1672 0
-1668 -1673 0
-1668 -1674 0
-1668 -1675 0
-1668 -1676 0
-1668 -1677 0
-1668 -1678 0
-1668 -1679 0
-1668 -1680 0
-1668 -1681 0
-1668 -1682 0
-1668 -1683 0
-1668 -1684 0
-1668 -1685 0
-1668 -1686 0
-1668 -1687 0
-1668 -1688 0
-1668 -1689 0
-1668 -1690 0
-1668 -1691 0
-1668 -1692 0
-1668 -1693 0
-1668 -1694 0
-1668 -1695 0
-1668 -1696 0
-1668 -1697 0
-1668 -1698 0
-1668 -1699 0
-1668 -1700 0
-1668 -1701 0
-1668 -1702 0
-1668 -1703 0
-1668 -1704 0
-1668 -1705 0
-1668 -1706 0
-1668 -1707 0
-1668 -1708 0
-1668 -1709 0
-1668 -1710 0
-1668 -1711 0
-1668 -1712 0
-1668 -1713 0
-1668 -1714 0
-1668 -1715 0
-1669 -1670 0
-1669 -1671 0
-1669 -1672 0
-1669 -1673 0
-1669 -1674 0
-1669 -1675 0
-1669 -1676 0
-1669 -1677 0
-1669 -1678 0
-1669 -1679 0
-1669 -1680 0
-1669 -1681 0
-1669 -1682 0
-1669 -1683 0
-1669 -1684 0
-1669 -1685 0
-1669 -1686 0
-1669 -1687 0
-1669 -1688 0
-1669 -1689 0
-1669 -1690 0
-1669 -1691 0
-1669 -1692 0
-1669 -1693 0
-1669 -1694 0
-1669 -1695 0
-1669 -1696 0
-1669 -1697 0
-1669 -1698 0
-1669 -1699 0
-1669 -1700 0
-1669 -1701 0
-1669 -1702 0
-1669 -1703 0
-1669 -1704 0
-1669 -1705 0
-1669 -1706 0
-1669 -1707 0
-1669 -1708 0
-1669 -1709 0
-1669 -1710 0
-1669 -1711 0
-1669 -1712 0
-1669 -1713 0
-1669 -1714 0
-1669 -1715 0
-1670 -1671 0
-1670 -1672 0
-1670 -1673 0
-1670 -1674 0
-1670 -1675 0
-1670 -1676 0
-1670 -1677 0
-1670 -1678 0
-1670 -1679 0
-1670 -1680 0
-1670 -1681 0
-1670 -1682 0
-1670 -1683 0
-1670 -1684 0
-1670 -1685 0
-1670 -1686 0
-1670 -1687 0
-1670 -1688 0
-1670 -1689 0
-1670 -1690 0
-1670 -1691 0
-1670 -1692 0
-1670 -1693 0
-1670 -1694 0
-1670 -1695 0
-1670 -1696 0
-1670 -1697 0
-1670 -1698 0
-1670 -1699 0
-1670 -1700 0
-1670 -1701 0
-1670 -1702 0
-1670 -1703 0
-1670 -1704 0
-1670 -1705 0
-1670 -1706 0
-1670 -1707 0
-1670 -1708 0
-1670 -1709 0
-1670 -1710 0
-1670 -1711 0
-1670 -1712 0
-1670 -1713 0
-1670 -1714 0
-1670 -1715 0
-1671 -1672 0
-1671 -1673 0
-1671 -1674 0
-1671 -1675 0
-1671 -1676 0
-1671 -1677 0
-1671 -1678 0
-1671 -1679 0
-1671 -1680 0
-1671 -1681 0
-1671 -1682 0
-1671 -1683 0
-1671 -1684 0
-1671 -1685 0
-1671 -1686 0
-1671 -1687 0
-1671 -1688 0
-1671 -1689 0
-1671 -1690 0
-1671 -1691 0
-1671 -1692 0
-1671 -1693 0
-1671 -1694 0
-1671 -1695 0
-1671 -1696 0
-1671 -1697 0
-1671 -1698 0
-1671 -1699 0
-1671 -1700 0
-1671 -1701 0
-1671 -1702 0
-1671 -1703 0
-1671 -1704 0
-1671 -1705 0
-1671 -1706 0
-1671 -1707 0
-1671 -1708 0
-1671 -1709 0
-1671 -1710 0
-1671 -1711 0
-1671 -1712 0
-1671 -1713 0
-1671 -1714 0
-1671 -1715 0
-1672 -1673 0
-1672 -1674 0
-1672 -1675 0
-1672 -1676 0
-1672 -1677 0
-1672 -1678 0
-1672 -1679 0
-1672 -1680 0
-1672 -1681 0
-1672 -1682 0
-1672 -1683 0
-1672 -1684 0
-1672 -1685 0
-1672 -1686 0
-1672 -1687 0
-1672 -1688 0
-1672 -1689 0
-1672 -1690 0
-1672 -1691 0
-1672 -1692 0
-1672 -1693 0
-1672 -1694 0
-1672 -1695 0
-1672 -1696 0
-1672 -1697 0
-1672 -1698 0
-1672 -1699 0
-1672 -1700 0
-1672 -1701 0
-1672 -1702 0
-1672 -1703 0
-1672 -1704 0
-1672 -1705 0
-1672 -1706 0
-1672 -1707 0
-1672 -1708 0
-1672 -1709 0
-1672 -1710 0
-1672 -1711 0
-1672 -1712 0
-1672 -1713 0
-1672 -1714 0
-1672 -1715 0
-1673 -1674 0
-1673 -1675 0
-1673 -1676 0
-1673 -1677 0
-1673 -1678 0
-1673 -1679 0
-1673 -1680 0
-1673 -1681 0
-1673 -1682 0
-1673 -1683 0
-1673 -1684 0
-1673 -1685 0
-1673 -1686 0
-1673 -1687 0
-1673 -1688 0
-1673 -1689 0
-1673 -1690 0
-1673 -1691 0
-1673 -1692 0
-1673 -1693 0
-1673 -1694 0
-1673 -1695 0
-1673 -1696 0
-1673 -1697 0
-1673 -1698 0
-1673 -1699 0
-1673 -1700 0
-1673 -1701 0
-1673 -1702 0
-1673 -1703 0
-1673 -1704 0
-1673 -1705 0
-1673 -1706 0
-1673 -1707 0
-1673 -1708 0
-1673 -1709 0
-1673 -1710 0
-1673 -1711 0
-1673 -1712 0
-1673 -1713 0
-1673 -1714 0
-1673 -1715 0
-1674 -1675 0
-1674 -1676 0
-1674 -1677 0
-1674 -1678 0
-1674 -1679 0
-1674 -1680 0
-1674 -1681 0
-1674 -1682 0
-1674 -1683 0
-1674 -1684 0
-1674 -1685 0
-1674 -1686 0
-1674 -1687 0
-1674 -1688 0
-1674 -1689 0
-1674 -1690 0
-1674 -1691 0
-1674 -1692 0
-1674 -1693 0
-1674 -1694 0
-1674 -1695 0
-1674 -1696 0
-1674 -1697 0
-1674 -1698 0
-1674 -1699 0
-1674 -1700 0
-1674 -1701 0
-1674 -1702 0
-1674 -1703 0
-1674 -1704 0
-1674 -1705 0
-1674 -1706 0
-1674 -1707 0
-1674 -1708 0
-1674 -1709 0
-1674 -1710 0
-1674 -1711 0
-1674 -1712 0
-1674 -1713 0
-1674 -1714 0
-1674 -1715 0
-1675 -1676 0
-1675 -1677 0
-1675 -1678 0
-1675 -1679 0
-1675 -1680 0
-1675 -1681 0
-1675 -1682 0
-1675 -1683 0
-1675 -1684 0
-1675 -1685 0
-1675 -1686 0
-1675 -1687 0
-1675 -1688 0
-1675 -1689 0
-1675 -1690 0
-1675 -1691 0
-1675 -1692 0
-1675 -1693 0
-1675 -1694 0
-1675 -1695 0
-1675 -1696 0
-1675 -1697 0
-1675 -1698 0
-1675 -1699 0
-1675 -1700 0
-1675 -1701 0
-1675 -1702 0
-1675 -1703 0
-1675 -1704 0
-1675 -1705 0
-1675 -1706 0
-1675 -1707 0
-1675 -1708 0
-1675 -1709 0
-1675 -1710 0
-1675 -1711 0
-1675 -1712 0
-1675 -1713 0
-1675 -1714 0
-1675 -1715 0
-1676 -1677 0
-1676 -1678 0
-1676 -1679 0
-1676 -1680 0
-1676 -1681 0
-1676 -1682 0
-1676 -1683 0
-1676 -1684 0
-1676 -1685 0
-1676 -1686 0
-1676 -1687 0
-1676 -1688 0
-1676 -1689 0
-1676 -1690 0
-1676 -1691 0
-1676 -1692 0
-1676 -1693 0
-1676 -1694 0
-1676 -1695 0
-1676 -1696 0
-1676 -1697 0
-1676 -1698 0
-1676 -1699 0
-1676 -1700 0
-1676 -1701 0
-1676 -1702 0
-1676 -1703 0
-1676 -1704 0
-1676 -1705 0
-1676 -1706 0
-1676 -1707 0
-1676 -1708 0
-1676 -1709 0
-1676 -1710 0
-1676 -1711 0
-1676 -1712 0
-1676 -1713 0
-1676 -1714 0
-1676 -1715 0
-1677 -1678 0
-1677 -1679 0
-1677 -1680 0
-1677 -1681 0
-1677 -1682 0
-1677 -1683 0
-1677 -1684 0
-1677 -1685 0
-1677 -1686 0
-1677 -1687 0
-1677 -1688 0
-1677 -1689 0
-1677 -1690 0
-1677 -1691 0
-1677 -1692 0
-1677 -1693 0
-1677 -1694 0
-1677 -1695 0
-1677 -1696 0
-1677 -1697 0
-1677 -1698 0
-1677 -1699 0
-1677 -1700 0
-1677 -1701 0
-1677 -1702 0
-1677 -1703 0
-1677 -1704 0
-1677 -1705 0
-1677 -1706 0
-1677 -1707 0
-1677 -1708 0
-1677 -1709 0
-1677 -1710 0
-1677 -1711 0
-1677 -1712 0
-1677 -1713 0
-1677 -1714 0
-1677 -1715 0
-1678 -1679 0
-1678 -1680 0
-1678 -1681 0
-1678 -1682 0
-1678 -1683 0
-1678 -1684 0
-1678 -1685 0
-1678 -1686 0
-1678 -1687 0
-1678 -1688 0
-1678 -1689 0
-1678 -1690 0
-1678 -1691 0
-1678 -1692 0
-1678 -1693 0
-1678 -1694 0
-1678 -1695 0
-1678 -1696 0
-1678 -1697 0
-1678 -1698 0
-1678 -1699 0
-1678 -1700 0
-1678 -1701 0
-1678 -1702 0
-1678 -1703 0
-1678 -1704 0
-1678 -1705 0
-1678 -1706 0
-1678 -1707 0
-1678 -1708 0
-1678 -1709 0
-1678 -1710 0
-1678 -1711 0
-1678 -1712 0
-1678 -1713 0
-1678 -1714 0
-1678 -1715 0
-1679 -1680 0
-1679 -1681 0
-1679 -1682 0
-1679 -1683 0
-1679 -1684 0
-1679 -1685 0
-1679 -1686 0
-1679 -1687 0
-1679 -1688 0
-1679 -1689 0
-1679 -1690 0
-1679 -1691 0
-1679 -1692 0
-1679 -1693 0
-1679 -1694 0
-1679 -1695 0
-1679 -1696 0
-1679 -1697 0
-1679 -1698 0
-1679 -1699 0
-1679 -1700 0
-1679 -1701 0
-1679 -1702 0
-1679 -1703 0
-1679 -1704 0
-1679 -1705 0
-1679 -1706 0
-1679 -1707 0
-1679 -1708 0
-1679 -1709 0
-1679 -1710 0
-1679 -1711 0
-1679 -1712 0
-1679 -1713 0
-1679 -1714 0
-1679 -1715 0
-1680 -1681 0
-1680 -1682 0
-1680 -1683 0
-1680 -1684 0
-1680 -1685 0
-1680 -1686 0
-1680 -1687 0
-1680 -1688 0
-1680 -1689 0
-1680 -1690 0
-1680 -1691 0
-1680 -1692 0
-1680 -1693 0
-1680 -1694 0
-1680 -1695 0
-1680 -1696 0
-1680 -1697 0
-1680 -1698 0
-1680 -1699 0
-1680 -1700 0
-1680 -1701 0
-1680 -1702 0
-1680 -1703 0
-1680 -1704 0
-1680 -1705 0
-1680 -1706 0
-1680 -1707 0
-1680 -1708 0
-1680 -1709 0
-1680 -1710 0
-1680 -1711 0
-1680 -1712 0
-1680 -1713 0
-1680 -1714 0
-1680 -1715 0
-1681 -1682 0
-1681 -1683 0
-1681 -1684 0
-1681 -1685 0
-1681 -1686 0
-1681 -1687 0
-1681 -1688 0
-1681 -1689 0
-1681 -1690 0
-1681 -1691 0
-1681 -1692 0
-1681 -1693 0
-1681 -1694 0
-1681 -1695 0
-1681 -1696 0
-1681 -1697 0
-1681 -1698 0
-1681 -1699 0
-1681 -1700 0
-1681 -1701 0
-1681 -1702 0
-1681 -1703 0
-1681 -1704 0
-1681 -1705 0
-1681 -1706 0
-1681 -1707 0
-1681 -1708 0
-1681 -1709 0
-1681 -1710 0
-1681 -1711 0
-1681 -1712 0
-1681 -1713 0
-1681 -1714 0
-1681 -1715 0
-1682 -1683 0
-1682 -1684 0
-1682 -1685 0
-1682 -1686 0
-1682 -1687 0
-1682 -1688 0
-1682 -1689 0
-1682 -1690 0
-1682 -1691 0
-1682 -1692 0
-1682 -1693 0
-1682 -1694 0
-1682 -1695 0
-1682 -1696 0
-1682 -1697 0
-1682 -1698 0
-1682 -1699 0
-1682 -1700 0
-1682 -1701 0
-1682 -1702 0
-1682 -1703 0
-1682 -1704 0
-1682 -1705 0
-1682 -1706 0
-1682 -1707 0
-1682 -1708 0
-1682 -1709 0
-1682 -1710 0
-1682 -1711 0
-1682 -1712 0
-1682 -1713 0
-1682 -1714 0
-1682 -1715 0
-1683 -1684 0
-1683 -1685 0
-1683 -1686 0
-1683 -1687 0
-1683 -1688 0
-1683 -1689 0
-1683 -1690 0
-1683 -1691 0
-1683 -1692 0
-1683 -1693 0
-1683 -1694 0
-1683 -1695 0
-1683 -1696 0
-1683 -1697 0
-1683 -1698 0
-1683 -1699 0
-1683 -1700 0
-1683 -1701 0
-1683 -1702 0
-1683 -1703 0
-1683 -1704 0
-1683 -1705 0
-1683 -1706 0
-1683 -1707 0
-1683 -1708 0
-1683 -1709 0
-1683 -1710 0
-1683 -1711 0
-1683 -1712 0
-1683 -1713 0
-1683 -1714 0
-1683 -1715 0
-1684 -1685 0
-1684 -1686 0
-1684 -1687 0
-1684 -1688 0
-1684 -1689 0
-1684 -1690 0
-1684 -1691 0
-1684 -1692 0
-1684 -1693 0
-1684 -1694 0
-1684 -1695 0
-1684 -1696 0
-1684 -1697 0
-1684 -1698 0
-1684 -1699 0
-1684 -1700 0
-1684 -1701 0
-1684 -1702 0
-1684 -1703 0
-1684 -1704 0
-1684 -1705 0
-1684 -1706 0
-1684 -1707 0
-1684 -1708 0
-1684 -1709 0
-1684 -1710 0
-1684 -1711 0
-1684 -1712 0
-1684 -1713 0
-1684 -1714 0
-1684 -1715 0
-1685 -1686 0
-1685 -1687 0
-1685 -1688 0
-1685 -1689 0
-1685 -1690 0
-1685 -1691 0
-1685 -1692 0
-1685 -1693 0
-1685 -1694 0
-1685 -1695 0
-1685 -1696 0
-1685 -1697 0
-1685 -1698 0
-1685 -1699 0
-1685 -1700 0
-1685 -1701 0
-1685 -1702 0
-1685 -1703 0
-1685 -1704 0
-1685 -1705 0
-1685 -1706 0
-1685 -1707 0
-1685 -1708 0
-1685 -1709 0
-1685 -1710 0
-1685 -1711 0
-1685 -1712 0
-1685 -1713 0
-1685 -1714 0
-1685 -1715 0
-1686 -1687 0
-1686 -1688 0
-1686 -1689 0
-1686 -1690 0
-1686 -1691 0
-1686 -1692 0
-1686 -1693 0
-1686 -1694 0
-1686 -1695 0
-1686 -1696 0
-1686 -1697 0
-1686 -1698 0
-1686 -1699 0
-1686 -1700 0
-1686 -1701 0
-1686 -1702 0
-1686 -1703 0
-1686 -1704 0
-1686 -1705 0
-1686 -1706 0
-1686 -1707 0
-1686 -1708 0
-1686 -1709 0
-1686 -1710 0
-1686 -1711 0
-1686 -1712 0
-1686 -1713 0
-1686 -1714 0
-1686 -1715 0
-1687 -1688 0
-1687 -1689 0
-1687 -1690 0
-1687 -1691 0
-1687 -1692 0
-1687 -1693 0
-1687 -1694 0
-1687 -1695 0
-1687 -1696 0
-1687 -1697 0
-1687 -1698 0
-1687 -1699 0
-1687 -1700 0
-1687 -1701 0
-1687 -1702 0
-1687 -1703 0
-1687 -1704 0
-1687 -1705 0
-1687 -1706 0
-1687 -1707 0
-1687 -1708 0
-1687 -1709 0
-1687 -1710 0
-1687 -1711 0
-1687 -1712 0
-1687 -1713 0
-1687 -1714 0
-1687 -1715 0
-1688 -1689 0
-1688 -1690 0
-1688 -1691 0
-1688 -1692 0
-1688 -1693 0
-1688 -1694 0
-1688 -1695 0
-1688 -1696 0
-1688 -1697 0
-1688 -1698 0
-1688 -1699 0
-1688 -1700 0
-1688 -1701 0
-1688 -1702 0
-1688 -1703 0
-1688 -1704 0
-1688 -1705 0
-1688 -1706 0
-1688 -1707 0
-1688 -1708 0
-1688 -1709 0
-1688 -1710 0
-1688 -1711 0
-1688 -1712 0
-1688 -1713 0
-1688 -1714 0
-1688 -1715 0
-1689 -1690 0
-1689 -1691 0
-1689 -1692 0
-1689 -1693 0
-1689 -1694 0
-1689 -1695 0
-1689 -1696 0
-1689 -1697 0
-1689 -1698 0
-1689 -1699 0
-1689 -1700 0
-1689 -1701 0
-1689 -1702 0
-1689 -1703 0
-1689 -1704 0
-1689 -1705 0
-1689 -1706 0
-1689 -1707 0
-1689 -1708 0
-1689 -1709 0
-1689 -1710 0
-1689 -1711 0
-1689 -1712 0
-1689 -1713 0
-1689 -1714 0
-1689 -1715 0
-1690 -1691 0
-1690 -1692 0
-1690 -1693 0
-1690 -1694 0
-1690 -1695 0
-1690 -1696 0
-1690 -1697 0
-1690 -1698 0
-1690 -1699 0
-1690 -1700 0
-1690 -1701 0
-1690 -1702 0
-1690 -1703 0
-1690 -1704 0
-1690 -1705 0
-1690 -1706 0
-1690 -1707 0
-1690 -1708 0
-1690 -1709 0
-1690 -1710 0
-1690 -1711 0
-1690 -1712 0
-1690 -1713 0
-1690 -1714 0
-1690 -1715 0
-1691 -1692 0
-1691 -1693 0
-1691 -1694 0
-1691 -1695 0
-1691 -1696 0
-1691 -1697 0
-1691 -1698 0
-1691 -1699 0
-1691 -1700 0
-1691 -1701 0
-1691 -1702 0
-1691 -1703 0
-1691 -1704 0
-1691 -1705 0
-1691 -1706 0
-1691 -1707 0
-1691 -1708 0
-1691 -1709 0
-1691 -1710 0
-1691 -1711 0
-1691 -1712 0
-1691 -1713 0
-1691 -1714 0
-1691 -1715 0
-1692 -1693 0
-1692 -1694 0
-1692 -1695 0
-1692 -1696 0
-1692 -1697 0
-1692 -1698 0
-1692 -1699 0
-1692 -1700 0
-1692 -1701 0
-1692 -1702 0
-1692 -1703 0
-1692 -1704 0
-1692 -1705 0
-1692 -1706 0
-1692 -1707 0
-1692 -1708 0
-1692 -1709 0
-1692 -1710 0
-1692 -1711 0
-1692 -1712 0
-1692 -1713 0
-1692 -1714 0
-1692 -1715 0
-1693 -1694 0
-1693 -1695 0
-1693 -1696 0
-1693 -1697 0
-1693 -1698 0
-1693 -1699 0
-1693 -1700 0
-1693 -1701 0
-1693 -1702 0
-1693 -1703 0
-1693 -1704 0
-1693 -1705 0
-1693 -1706 0
-1693 -1707 0
-1693 -1708 0
-1693 -1709 0
-1693 -1710 0
-1693 -1711 0
-1693 -1712 0
-1693 -1713 0
-1693 -1714 0
-1693 -1715 0
-1694 -1695 0
-1694 -1696 0
-1694 -1697 0
-1694 -1698 0
-1694 -1699 0
-1694 -1700 0
-1694 -1701 0
-1694 -1702 0
-1694 -1703 0
-1694 -1704 0
-1694 -1705 0
-1694 -1706 0
-1694 -1707 0
-1694 -1708 0
-1694 -1709 0
-1694 -1710 0
-1694 -1711 0
-1694 -1712 0
-1694 -1713 0
-1694 -1714 0
-1694 -1715 0
-1695 -1696 0
-1695 -1697 0
-1695 -1698 0
-1695 -1699 0
-1695 -1700 0
-1695 -1701 0
-1695 -1702 0
-1695 -1703 0
-1695 -1704 0
-1695 -1705 0
-1695 -1706 0
-1695 -1707 0
-1695 -1708 0
-1695 -1709 0
-1695 -1710 0
-1695 -1711 0
-1695 -1712 0
-1695 -1713 0
-1695 -1714 0
-1695 -1715 0
-1696 -1697 0
-1696 -1698 0
-1696 -1699 0
-1696 -1700 0
-1696 -1701 0
-1696 -1702 0
-1696 -1703 0
-1696 -1704 0
-1696 -1705 0
-1696 -1706 0
-1696 -1707 0
-1696 -1708 0
-1696 -1709 0
-1696 -1710 0
-1696 -1711 0
-1696 -1712 0
-1696 -1713 0
-1696 -1714 0
-1696 -1715 0
-1697 -1698 0
-1697 -1699 0
-1697 -1700 0
-1697 -1701 0
-1697 -1702 0
-1697 -1703 0
-1697 -1704 0
-1697 -1705 0
-1697 -1706 0
-1697 -1707 0
-1697 -1708 0
-1697 -1709 0
-1697 -1710 0
-1697 -1711 0
-1697 -1712 0
-1697 -1713 0
-1697 -1714 0
-1697 -1715 0
-1698 -1699 0
-1698 -1700 0
-1698 -1701 0
-1698 -1702 0
-1698 -1703 0
-1698 -1704 0
-1698 -1705 0
-1698 -1706 0
-1698 -1707 0
-1698 -1708 0
-1698 -1709 0
-1698 -1710 0
-1698 -1711 0
-1698 -1712 0
-1698 -1713 0
-1698 -1714 0
-1698 -1715 0
-1699 -1700 0
-1699 -1701 0
-1699 -1702 0
-1699 -1703 0
-1699 -1704 0
-1699 -1705 0
-1699 -1706 0
-1699 -1707 0
-1699 -1708 0
-1699 -1709 0
-1699 -1710 0
-1699 -1711 0
-1699 -1712 0
-1699 -1713 0
-1699 -1714 0
-1699 -1715 0
-1700 -1701 0
-1700 -1702 0
-1700 -1703 0
-1700 -1704 0
-1700 -1705 0
-1700 -1706 0
-1700 -1707 0
-1700 -1708 0
-1700 -1709 0
-1700 -1710 0
-1700 -1711 0
-1700 -1712 0
-1700 -1713 0
-1700 -1714 0
-1700 -1715 0
-1701 -1702 0
-1701 -1703 0
-1701 -1704 0
-1701 -1705 0
-1701 -1706 0
-1701 -1707 0
-1701 -1708 0
-1701 -1709 0
-1701 -1710 0
-1701 -1711 0
-1701 -1712 0
-1701 -1713 0
-1701 -1714 0
-1701 -1715 0
-1702 -1703 0
-1702 -1704 0
-1702 -1705 0
-1702 -1706 0
-1702 -1707 0
-1702 -1708 0
-1702 -1709 0
-1702 -1710 0
-1702 -1711 0
-1702 -1712 0
-1702 -1713 0
-1702 -1714 0
-1702 -1715 0
-1703 -1704 0
-1703 -1705 0
-1703 -1706 0
-1703 -1707 0
-1703 -1708 0
-1703 -1709 0
-1703 -1710 0
-1703 -1711 0
-1703 -1712 0
-1703 -1713 0
-1703 -1714 0
-1703 -1715 0
-1704 -1705 0
-1704 -1706 0
-1704 -1707 0
-1704 -1708 0
-1704 -1709 0
-1704 -1710 0
-1704 -1711 0
-1704 -1712 0
-1704 -1713 0
-1704 -1714 0
-1704 -1715 0
-1705 -1706 0
-1705 -1707 0
-1705 -1708 0
-1705 -1709 0
-1705 -1710 0
-1705 -1711 0
-1705 -1712 0
-1705 -1713 0
-1705 -1714 0
-1705 -1715 0
-1706 -1707 0
-1706 -1708 0
-1706 -1709 0
-1706 -1710 0
-1706 -1711 0
-1706 -1712 0
-1706 -1713 0
-1706 -1714 0
-1706 -1715 0
-1707 -1708 0
-1707 -1709 0
-1707 -1710 0
-1707 -1711 0
-1707 -1712 0
-1707 -1713 0
-1707 -1714 0
-1707 -1715 0
-1708 -1709 0
-1708 -1710 0
-1708 -1711 0
-1708 -1712 0
-1708 -1713 0
-1708 -1714 0
-1708 -1715 0
-1709 -1710 0
-1709 -1711 0
-1709 -1712 0
-1709 -1713 0
-1709 -1714 0
-1709 -1715 0
-1710 -1711 0
-1710 -1712 0
-1710 -1713 0
-1710 -1714 0
-1710 -1715 0
-1711 -1712 0
-1711 -1713 0
-1711 -1714 0
-1711 -1715 0
-1712 -1713 0
-1712 -1714 0
-1712 -1715 0
-1713 -1714 0
-1713 -1715 0
-1714 -1715 0
1716 1717 1718 1719 1720 1721 1722 1723 1724 1725 1726 1727 1728 1729 1730 1731 1732 1733 1734 1735 1736 1737 1738 1739 1740 1741 1742 1743 1744 1745 1746 1747 1748 1749 1750 1751 1752 1753 1754 1755 1756 1757 1758 1759 1760 1761 1762 1763 1764 1765 1766 1767 1768 1769 1770 1771 1772 1773 1774 1775 1776 1777 1778 1779 1780 1781 1782 1783 1784 1785 1786 1787 1788 1789 1790 1791 1792 1793 1794 1795 1796 1797 1798 1799 0
-1716 -1717 0
-1716 -1718 0
-1716 -1719 0
-1716 -1720 0
-1716 -1721 0
-1716 -1722 0
-1716 -1723 0
-1716 -1724 0
-1716 -1725 0
-1716 -1726 0
-1716 -1727 0
-1716 -1728 0
-1716 -1729 0
-1716 -1730 0
-1716 -1731 0
-1716 -1732 0
-1716 -1733 0
-1716 -1734 0
-1716 -1735 0
-1716 -1736 0
-1716 -1737 0
-1716 -1738 0
-1716 -1739 0
-1716 -1740 0
-1716 -1741 0
-1716 -1742 0
-1716 -1743 0
-1716 -1744 0
-1716 -1745 0
-1716 -1746 0
-1716 -1747 0
-1716 -1748 0
-1716 -1749 0
-1716 -1750 0
-1716 -1751 0
-1716 -1752 0
-1716 -1753 0
-1716 -1754 0
-1716 -1755 0
-1716 -1756 0
-1716 -1757 0
-1716 -1758 0
-1716 -1759 0
-1716 -1760 0
-1716 -1761 0
-1716 -1762 0
-1716 -1763 0
-1716 -1764 0
-1716 -1765 0
-1716 -1766 0
-1716 -1767 0
-1716 -1768 0
-1716 -1769 0
-1716 -1770 0
-1716 -1771 0
-1716 -1772 0
-1716 -1773 0
-1716 -1774 0
-1716 -1775 0
-1716 -1776 0
-1716 -1777 0
-1716 -1778 0
-1716 -1779 0
-1716 -1780 0
-1716 -1781 0
-1716 -1782 0
-1716 -1783 0
-1716 -1784 0
-1716 -1785 0
-1716 -1786 0
-1716 -1787 0
-1716 -1788 0
-1716 -1789 0
-1716 -1790 0
-1716 -1791 0
-1716 -1792 0
-1716 -1793 0
-1716 -1794 0
-1716 -1795 0
-1716 -1796 0
-1716 -1797 0
-1716 -1798 0
-1716 -1799 0
-1717 -1718 0
-1717 -1719 0
-1717 -1720 0
-1717 -1721 0
-1717 -1722 0
-1717 -1723 0
-1717 -1724 0
-1717 -1725 0
-1717 -1726 0
-1717 -1727 0
-1717 -1728 0
-1717 -1729 0
-1717 -1730 0
-1717 -1731 0
-1717 -1732 0
-1717 -1733 0
-1717 -1734 0
-1717 -1735 0
-1717 -1736 0
-1717 -1737 0
-1717 -1738 0
-1717 -1739 0
-1717 -1740 0
-1717 -1741 0
-1717 -1742 0
-1717 -1743 0
-1717 -1744 0
-1717 -1745 0
-1717 -1746 0
-1717 -1747 0
-1717 -1748 0
-1717 -1749 0
-1717 -1750 0
-1717 -1751 0
-1717 -1752 0
-1717 -1753 0
-1717 -1754 0
-1717 -1755 0
-1717 -1756 0
-1717 -1757 0
-1717 -1758 0
-1717 -1759 0
-1717 -1760 0
-1717 -1761 0
-1717 -1762 0
-1717 -1763 0
-1717 -1764 0
-1717 -1765 0
-1717 -1766 0
-1717 -1767 0
-1717 -1768 0
-1717 -1769 0
-1717 -1770 0
-1717 -1771 0
-1717 -1772 0
-1717 -1773 0
-1717 -1774 0
-1717 -1775 0
-1717 -1776 0
-1717 -1777 0
-1717 -1778 0
-1717 -1779 0
-1717 -1780 0
-1717 -1781 0
-1717 -1782 0
-1717 -1783 0
-1717 -1784 0
-1717 -1785 0
-1717 -1786 0
-1717 -1787 0
-1717 -1788 0
-1717 -1789 0
-1717 -1790 0
-1717 -1791 0
-1717 -1792 0
-1717 -1793 0
-1717 -1794 0
-1717 -1795 0
-1717 -1796 0
-1717 -1797 0
-1717 -1798 0
-1717 -1799 0
-1718 -1719 0
-1718 -1720 0
-1718 -1721 0
-1718 -1722 0
-1718 -1723 0
-1718 -1724 0
-1718 -1725 0
-1718 -1726 0
-1718 -1727 0
-1718 -1728 0
-1718 -1729 0
-1718 -1730 0
-1718 -1731 0
-1718 -1732 0
-1718 -1733 0
-1718 -1734 0
-1718 -1735 0
-1718 -1736 0
-1718 -1737 0
-1718 -1738 0
-1718 -1739 0
-1718 -1740 0
-1718 -1741 0
-1718 -1742 0
-1718 -1743 0
-1718 -1744 0
-1718 -1745 0
-1718 -1746 0
-1718 -1747 0
-1718 -1748 0
-1718 -1749 0
-1718 -1750 0
-1718 -1751 0
-1718 -1752 0
-1718 -1753 0
-1718 -1754 0
-1718 -1755 0
-1718 -1756 0
-1718 -1757 0
-1718 -1758 0
-1718 -1759 0
-1718 -1760 0
-1718 -1761 0
-1718 -1762 0
-1718 -1763 0
-1718 -1764 0
-1718 -1765 0
-1718 -1766 0
-1718 -1767 0
-1718 -1768 0
-1718 -1769 0
-1718 -1770 0
-1718 -1771 0
-1718 -1772 0
-1718 -1773 0
-1718 -1774 0
-1718 -1775 0
-1718 -1776 0
-1718 -1777 0
-1718 -1778 0
-1718 -1779 0
-1718 -1780 0
-1718 -1781 0
-1718 -1782 0
-1718 -1783 0
-1718 -1784 0
-1718 -1785 0
-1718 -1786 0
-1718 -1787 0
-1718 -1788 0
-1718 -1789 0
-1718 -1790 0
-1718 -1791 0
-1718 -1792 0
-1718 -1793 0
-1718 -1794 0
-1718 -1795 0
-1718 -1796 0
-1718 -1797 0
-1718 -1798 0
-1718 -1799 0
-1719 -1720 0
-1719 -1721 0
-1719 -1722 0
-1719 -1723 0
-1719 -1724 0
-1719 -1725 0
-1719 -1726 0
-1719 -1727 0
-1719 -1728 0
-1719 -1729 0
-1719 -1730 0
-1719 -1731 0
-1719 -1732 0
-1719 -1733 0
-1719 -1734 0
-1719 -1735 0
-1719 -1736 0
-1719 -1737 0
-1719 -1738 0
-1719 -1739 0
-1719 -1740 0
-1719 -1741 0
-1719 -1742 0
-1719 -1743 0
-1719 -1744 0
-1719 -1745 0
-1719 -1746 0
-1719 -1747 0
-1719 -1748 0
-1719 -1749 0
-1719 -1750 0
-1719 -1751 0
-1719 -1752 0
-1719 -1753 0
-1719 -1754 0
-1719 -1755 0
-1719 -1756 0
-1719 -1757 0
-1719 -1758 0
-1719 -1759 0
-1719 -1760 0
-1719 -1761 0
-1719 -1762 0
-1719 -1763 0
-1719 -1764 0
-1719 -1765 0
-1719 -1766 0
-1719 -1767 0
-1719 -1768 0
-1719 -1769 0
-1719 -1770 0
-1719 -1771 0
-1719 -1772 0
-1719 -1773 0
-1719 -1774 0
-1719 -1775 0
-1719 -1776 0
-1719 -1777 0
-1719 -1778 0
-1719 -1779 0
-1719 -1780 0
-1719 -1781 0
-1719 -1782 0
-1719 -1783 0
-1719 -1784 0
-1719 -1785 0
-1719 -1786 0
-1719 -1787 0
-1719 -1788 0
-1719 -1789 0
-1719 -1790 0
-1719 -1791 0
-1719 -1792 0
-1719 -1793 0
-1719 -1794 0
-1719 -1795 0
-1719 -1796 0
-1719 -1797 0
-1719 -1798 0
-1719 -1799 0
-1720 -1721 0
-1720 -1722 0
-1720 -1723 0
-1720 -1724 0
-1720 -1725 0
-1720 -1726 0
-1720 -1727 0
-1720 -1728 0
-1720 -1729 0
-1720 -1730 0
-1720 -1731 0
-1720 -1732 0
-1720 -1733 0
-1720 -1734 0
-1720 -1735 0
-1720 -1736 0
-1720 -1737 0
-1720 -1738 0
-1720 -1739 0
-1720 -1740 0
-1720 -1741 0
-1720 -1742 0
-1720 -1743 0
-1720 -1744 0
-1720 -1745 0
-1720 -1746 0
-1720 -1747 0
-1720 -1748 0
-1720 -1749 0
-1720 -1750 0
-1720 -1751 0
-1720 -1752 0
-1720 -1753 0
-1720 -1754 0
-1720 -1755 0
-1720 -1756 0
-1720 -1757 0
-1720 -1758 0
-1720 -1759 0
-1720 -1760 0
-1720 -1761 0
-1720 -1762 0
-1720 -1763 0
-1720 -1764 0
-1720 -1765 0
-1720 -1766 0
-1720 -1767 0
-1720 -1768 0
-1720 -1769 0
-1720 -1770 0
-1720 -1771 0
-1720 -1772 0
-1720 -1773 0
-1720 -1774 0
-1720 -1775 0
-1720 -1776 0
-1720 -1777 0
-1720 -1778 0
-1720 -1779 0
-1720 -1780 0
-1720 -1781 0
-1720 -1782 0
-1720 -1783 0
-1720 -1784 0
-1720 -1785 0
-1720 -1786 0
-1720 -1787 0
-1720 -1788 0
-1720 -1789 0
-1720 -1790 0
-1720 -1791 0
-1720 -1792 0
-1720 -1793 0
-1720 -1794 0
-1720 -1795 0
-1720 -1796 0
-1720 -1797 0
-1720 -1798 0
-1720 -1799 0
-1721 -1722 0
-1721 -1723 0
-1721 -1724 0
-1721 -1725 0
-1721 -1726 0
-1721 -1727 0
-1721 -1728 0
-1721 -1729 0
-1721 -1730 0
-1721 -1731 0
-1721 -1732 0
-1721 -1733 0
-1721 -1734 0
-1721 -1735 0
-1721 -1736 0
-1721 -1737 0
-1721 -1738 0
-1721 -1739 0
-1721 -1740 0
-1721 -1741 0
-1721 -1742 0
-1721 -1743 0
-1721 -1744 0
-1721 -1745 0
-1721 -1746 0
-1721 -1747 0
-1721 -1748 0
-1721 -1749 0
-1721 -1750 0
-1721 -1751 0
-1721 -1752 0
-1721 -1753 0
-1721 -1754 0
-1721 -1755 0
-1721 -1756 0
-1721 -1757 0
-1721 -1758 0
-1721 -1759 0
-1721 -1760 0
-1721 -1761 0
-1721 -1762 0
-1721 -1763 0
-1721 -1764 0
-1721 -1765 0
-1721 -1766 0
-1721 -1767 0
-1721 -1768 0
-1721 -1769 0
-1721 -1770 0
-1721 -1771 0
-1721 -1772 0
-1721 -1773 0
-1721 -1774 0
-1721 -1775 0
-1721 -1776 0
-1721 -1777 0
-1721 -1778 0
-1721 -1779 0
-1721 -1780 0
-1721 -1781 0
-1721 -1782 0
-1721 -1783 0
-1721 -1784 0
-1721 -1785 0
-1721 -1786 0
-1721 -1787 0
-1721 -1788 0
-1721 -1789 0
-1721 -1790 0
-1721 -1791 0
-1721 -1792 0
-1721 -1793 0
-1721 -1794 0
-1721 -1795 0
-1721 -1796 0
-1721 -1797 0
-1721 -1798 0
-1721 -1799 0
-1722 -1723 0
-1722 -1724 0
-1722 -1725 0
-1722 -1726 0
-1722 -1727 0
-1722 -1728 0
-1722 -1729 0
-1722 -1730 0
-1722 -1731 0
-1722 -1732 0
-1722 -1733 0
-1722 -1734 0
-1722 -1735 0
-1722 -1736 0
-1722 -1737 0
-1722 -1738 0
-1722 -1739 0
-1722 -1740 0
-1722 -1741 0
-1722 -1742 0
-1722 -1743 0
-1722 -1744 0
-1722 -1745 0
-1722 -1746 0
-1722 -1747 0
-1722 -1748 0
-1722 -1749 0
-1722 -1750 0
-1722 -1751 0
-1722 -1752 0
-1722 -1753 0
-1722 -1754 0
-1722 -1755 0
-1722 -1756 0
-1722 -1757 0
-1722 -1758 0
-1722 -1759 0
-1722 -1760 0
-1722 -1761 0
-1722 -1762 0
-1722 -1763 0
-1722 -1764 0
-1722 -1765 0
-1722 -1766 0
-1722 -1767 0
-1722 -1768 0
-1722 -1769 0
-1722 -1770 0
-1722 -1771 0
-1722 -1772 0
-1722 -1773 0
-1722 -1774 0
-1722 -1775 0
-1722 -1776 0
-1722 -1777 0
-1722 -1778 0
-1722 -1779 0
-1722 -1780 0
-1722 -1781 0
-1722 -1782 0
-1722 -1783 0
-1722 -1784 0
-1722 -1785 0
-1722 -1786 0
-1722 -1787 0
-1722 -1788 0
-1722 -1789 0
-1722 -1790 0
-1722 -1791 0
-1722 -1792 0
-1722 -1793 0
-1722 -1794 0
-1722 -1795 0
-1722 -1796 0
-1722 -1797 0
-1722 -1798 0
-1722 -1799 0
-1723 -1724 0
-1723 -1725 0
-1723 -1726 0
-1723 -1727 0
-1723 -1728 0
-1723 -1729 0
-1723 -1730 0
-1723 -1731 0
-1723 -1732 0
-1723 -1733 0
-1723 -1734 0
-1723 -1735 0
-1723 -1736 0
-1723 -1737 0
-1723 -1738 0
-1723 -1739 0
-1723 -1740 0
-1723 -1741 0
-1723 -1742 0
-1723 -1743 0
-1723 -1744 0
-1723 -1745 0
-1723 -1746 0
-1723 -1747 0
-1723 -1748 0
-1723 -1749 0
-1723 -1750 0
-1723 -1751 0
-1723 -1752 0
-1723 -1753 0
-1723 -1754 0
-1723 -1755 0
-1723 -1756 0
-1723 -1757 0
-1723 -1758 0
-1723 -1759 0
-1723 -1760 0
-1723 -1761 0
-1723 -1762 0
-1723 -1763 0
-1723 -1764 0
-1723 -1765 0
-1723 -1766 0
-1723 -1767 0
-1723 -1768 0
-1723 -1769 0
-1723 -1770 0
-1723 -1771 0
-1723 -1772 0
-1723 -1773 0
-1723 -1774 0
-1723 -1775 0
-1723 -1776 0
-1723 -1777 0
-1723 -1778 0
-1723 -1779 0
-1723 -1780 0
-1723 -1781 0
-1723 -1782 0
-1723 -1783 0
-1723 -1784 0
-1723 -1785 0
-1723 -1786 0
-1723 -1787 0
-1723 -1788 0
-1723 -1789 0
-1723 -1790 0
-1723 -1791 0
-1723 -1792 0
-1723 -1793 0
-1723 -1794 0
-1723 -1795 0
-1723 -1796 0
-1723 -1797 0
-1723 -1798 0
-1723 -1799 0
-1724 -1725 0
-1724 -1726 0
-1724 -1727 0
-1724 -1728 0
-1724 -1729 0
-1724 -1730 0
-1724 -1731 0
-1724 -1732 0
-1724 -1733 0
-1724 -1734 0
-1724 -1735 0
-1724 -1736 0
-1724 -1737 0
-1724 -1738 0
-1724 -1739 0
-1724 -1740 0
-1724 -1741 0
-1724 -1742 0
-1724 -1743 0
-1724 -1744 0
-1724 -1745 0
-1724 -1746 0
-1724 -1747 0
-1724 -1748 0
-1724 -1749 0
-1724 -1750 0
-1724 -1751 0
-1724 -1752 0
-1724 -1753 0
-1724 -1754 0
-1724 -1755 0
-1724 -1756 0
-1724 -1757 0
-1724 -1758 0
-1724 -1759 0
-1724 -1760 0
-1724 -1761 0
-1724 -1762 0
-1724 -1763 0
-1724 -1764 0
-1724 -1765 0
-1724 -1766 0
-1724 -1767 0
-1724 -1768 0
-1724 -1769 0
-1724 -1770 0
-1724 -1771 0
-1724 -1772 0
-1724 -1773 0
-1724 -1774 0
-1724 -1775 0
-1724 -1776 0
-1724 -1777 0
-1724 -1778 0
-1724 -1779 0
-1724 -1780 0
-1724 -1781 0
-1724 -1782 0
-1724 -1783 0
-1724 -1784 0
-1724 -1785 0
-1724 -1786 0
-1724 -1787 0
-1724 -1788 0
-1724 -1789 0
-1724 -1790 0
-1724 -1791 0
-1724 -1792 0
-1724 -1793 0
-1724 -1794 0
-1724 -1795 0
-1724 -1796 0
-1724 -1797 0
-1724 -1798 0
-1724 -1799 0
-1725 -1726 0
-1725 -1727 0
-1725 -1728 0
-1725 -1729 0
-1725 -1730 0
-1725 -1731 0
-1725 -1732 0
-1725 -1733 0
-1725 -1734 0
-1725 -1735 0
-1725 -1736 0
-1725 -1737 0
-1725 -1738 0
-1725 -1739 0
-1725 -1740 0
-1725 -1741 0
-1725 -1742 0
-1725 -1743 0
-1725 -1744 0
-1725 -1745 0
-1725 -1746 0
-1725 -1747 0
-1725 -1748 0
-1725 -1749 0
-1725 -1750 0
-1725 -1751 0
-1725 -1752 0
-1725 -1753 0
-1725 -1754 0
-1725 -1755 0
-1725 -1756 0
-1725 -1757 0
-1725 -1758 0
-1725 -1759 0
-1725 -1760 0
-1725 -1761 0
-1725 -1762 0
-1725 -1763 0
-1725 -1764 0
-1725 -1765 0
-1725 -1766 0
-1725 -1767 0
-1725 -1768 0
-1725 -1769 0
-1725 -1770 0
-1725 -1771 0
-1725 -1772 0
-1725 -1773 0
-1725 -1774 0
-1725 -1775 0
-1725 -1776 0
-1725 -1777 0
-1725 -1778 0
-1725 -1779 0
-1725 -1780 0
-1725 -1781 0
-1725 -1782 0
-1725 -1783 0
-1725 -1784 0
-1725 -1785 0
-1725 -1786 0
-1725 -1787 0
-1725 -1788 0
-1725 -1789 0
-1725 -1790 0
-1725 -1791 0
-1725 -1792 0
-1725 -1793 0
-1725 -1794 0
-1725 -1795 0
-1725 -1796 0
-1725 -1797 0
-1725 -1798 0
-1725 -1799 0
-1726 -1727 0
-1726 -1728 0
-1726 -1729 0
-1726 -1730 0
-1726 -1731 0
-1726 -1732 0
-1726 -1733 0
-1726 -1734 0
-1726 -1735 0
-1726 -1736 0
-1726 -1737 0
-1726 -1738 0
-1726 -1739 0
-1726 -1740 0
-1726 -1741 0
-1726 -1742 0
-1726 -1743 0
-1726 -1744 0
-1726 -1745 0
-1726 -1746 0
-1726 -1747 0
-1726 -1748 0
-1726 -1749 0
-1726 -1750 0
-1726 -1751 0
-1726 -1752 0
-1726 -1753 0
-1726 -1754 0
-1726 -1755 0
-1726 -1756 0
-1726 -1757 0
-1726 -1758 0
-1726 -1759 0
-1726 -1760 0
-1726 -1761 0
-1726 -1762 0
-1726 -1763 0
-1726 -1764 0
-1726 -1765 0
-1726 -1766 0
-1726 -1767 0
-1726 -1768 0
-1726 -1769 0
-1726 -1770 0
-1726 -1771 0
-1726 -1772 0
-1726 -1773 0
-1726 -1774 0
-1726 -1775 0
-1726 -1776 0
-1726 -1777 0
-1726 -1778 0
-1726 -1779 0
-1726 -1780 0
-1726 -1781 0
-1726 -1782 0
-1726 -1783 0
-1726 -1784 0
-1726 -1785 0
-1726 -1786 0
-1726 -1787 0
-1726 -1788 0
-1726 -1789 0
-1726 -1790 0
-1726 -1791 0
-1726 -1792 0
-1726 -1793 0
-1726 -1794 0
-1726 -1795 0
-1726 -1796 0
-1726 -1797 0
-1726 -1798 0
-1726 -1799 0
-1727 -1728 0
-1727 -1729 0
-1727 -1730 0
-1727 -1731 0
-1727 -1732 0
-1727 -1733 0
-1727 -1734 0
-1727 -1735 0
-1727 -1736 0
-1727 -1737 0
-1727 -1738 0
-1727 -1739 0
-1727 -1740 0
-1727 -1741 0
-1727 -1742 0
-1727 -1743 0
-1727 -1744 0
-1727 -1745 0
-1727 -1746 0
-1727 -1747 0
-1727 -1748 0
-1727 -1749 0
-1727 -1750 0
-1727 -1751 0
-1727 -1752 0
-1727 -1753 0
-1727 -1754 0
-1727 -1755 0
-1727 -1756 0
-1727 -1757 0
-1727 -1758 0
-1727 -1759 0
-1727 -1760 0
-1727 -1761 0
-1727 -1762 0
-1727 -1763 0
-1727 -1764 0
-1727 -1765 0
-1727 -1766 0
-1727 -1767 0
-1727 -1768 0
-1727 -1769 0
-1727 -1770 0
-1727 -1771 0
-1727 -1772 0
-1727 -1773 0
-1727 -1774 0
-1727 -1775 0
-1727 -1776 0
-1727 -1777 0
-1727 -1778 0
-1727 -1779 0
-1727 -1780 0
-1727 -1781 0
-1727 -1782 0
-1727 -1783 0
-1727 -1784 0
-1727 -1785 0
-1727 -1786 0
-1727 -1787 0
-1727 -1788 0
-1727 -1789 0
-1727 -1790 0
-1727 -1791 0
-1727 -1792 0
-1727 -1793 0
-1727 -1794 0
-1727 -1795 0
-1727 -1796 0
-1727 -1797 0
-1727 -1798 0
-1727 -1799 0
-1728 -1729 0
-1728 -1730 0
-1728 -1731 0
-1728 -1732 0
-1728 -1733 0
-1728 -1734 0
-1728 -1735 0
-1728 -1736 0
-1728 -1737 0
-1728 -1738 0
-1728 -1739 0
-1728 -1740 0
-1728 -1741 0
-1728 -1742 0
-1728 -1743 0
-1728 -1744 0
-1728 -1745 0
-1728 -1746 0
-1728 -1747 0
-1728 -1748 0
-1728 -1749 0
-1728 -1750 0
-1728 -1751 0
-1728 -1752 0
-1728 -1753 0
-1728 -1754 0
-1728 -1755 0
-1728 -1756 0
-1728 -1757 0
-1728 -1758 0
-1728 -1759 0
-1728 -1760 0
-1728 -1761 0
-1728 -1762 0
-1728 -1763 0
-1728 -1764 0
-1728 -1765 0
-1728 -1766 0
-1728 -1767 0
-1728 -1768 0
-1728 -1769 0
-1728 -1770 0
-1728 -1771 0
-1728 -1772 0
-1728 -1773 0
-1728 -1774 0
-1728 -1775 0
-1728 -1776 0
-1728 -1777 0
-1728 -1778 0
-1728 -1779 0
-1728 -1780 0
-1728 -1781 0
-1728 -1782 0
-1728 -1783 0
-1728 -1784 0
-1728 -1785 0
-1728 -1786 0
-1728 -1787 0
-1728 -1788 0
-1728 -1789 0
-1728 -1790 0
-1728 -1791 0
-1728 -1792 0
-1728 -1793 0
-1728 -1794 0
-1728 -1795 0
-1728 -1796 0
-1728 -1797 0
-1728 -1798 0
-1728 -1799 0
-1729 -1730 0
-1729 -1731 0
-1729 -1732 0
-1729 -1733 0
-1729 -1734 0
-1729 -1735 0
-1729 -1736 0
-1729 -1737 0
-1729 -1738 0
-1729 -1739 0
-1729 -1740 0
-1729 -1741 0
-1729 -1742 0
-1729 -1743 0
-1729 -1744 0
-1729 -1745 0
-1729 -1746 0
-1729 -1747 0
-1729 -1748 0
-1729 -1749 0
-1729 -1750 0
-1729 -1751 0
-1729 -1752 0
-1729 -1753 0
-1729 -1754 0
-1729 -1755 0
-1729 -1756 0
-1729 -1757 0
-1729 -1758 0
-1729 -1759 0
-1729 -1760 0
-1729 -1761 0
-1729 -1762 0
-1729 -1763 0
-1729 -1764 0
-1729 -1765 0
-1729 -1766 0
-1729 -1767 0
-1729 -1768 0
-1729 -1769 0
-1729 -1770 0
-1729 -1771 0
-1729 -1772 0
-1729 -1773 0
-1729 -1774 0
-1729 -1775 0
-1729 -1776 0
-1729 -1777 0
-1729 -1778 0
-1729 -1779 0
-1729 -1780 0
-1729 -1781 0
-1729 -1782 0
-1729 -1783 0
-1729 -1784 0
-1729 -1785 0
-1729 -1786 0
-1729 -1787 0
-1729 -1788 0
-1729 -1789 0
-1729 -1790 0
-1729 -1791 0
-1729 -1792 0
-1729 -1793 0
-1729 -1794 0
-1729 -1795 0
-1729 -1796 0
-1729 -1797 0
-1729 -1798 0
-1729 -1799 0
-1730 -1731 0
-1730 -1732 0
-1730 -1733 0
-1730 -1734 0
-1730 -1735 0
-1730 -1736 0
-1730 -1737 0
-1730 -1738 0
-1730 -1739 0
-1730 -1740 0
-1730 -1741 0
-1730 -1742 0
-1730 -1743 0
-1730 -1744 0
-1730 -1745 0
-1730 -1746 0
-1730 -1747 0
-1730 -1748 0
-1730 -1749 0
-1730 -1750 0
-1730 -1751 0
-1730 -1752 0
-1730 -1753 0
-1730 -1754 0
-1730 -1755 0
-1730 -1756 0
-1730 -1757 0
-1730 -1758 0
-1730 -1759 0
-1730 -1760 0
-1730 -1761 0
-1730 -1762 0
-1730 -1763 0
-1730 -1764 0
-1730 -1765 0
-1730 -1766 0
-1730 -1767 0
-1730 -1768 0
-1730 -1769 0
-1730 -1770 0
-1730 -1771 0
-1730 -1772 0
-1730 -1773 0
-1730 -1774 0
-1730 -1775 0
-1730 -1776 0
-1730 -1777 0
-1730 -1778 0
-1730 -1779 0
-1730 -1780 0
-1730 -1781 0
-1730 -1782 0
-1730 -1783 0
-1730 -1784 0
-1730 -1785 0
-1730 -1786 0
-1730 -1787 0
-1730 -1788 0
-1730 -1789 0
-1730 -1790 0
-1730 -1791 0
-1730 -1792 0
-1730 -1793 0
-1730 -1794 0
-1730 -1795 0
-1730 -1796 0
-1730 -1797 0
-1730 -1798 0
-1730 -1799 0
-1731 -1732 0
-1731 -1733 0
-1731 -1734 0
-1731 -1735 0
-1731 -1736 0
-1731 -1737 0
-1731 -1738 0
-1731 -1739 0
-1731 -1740 0
-1731 -1741 0
-1731 -1742 0
-1731 -1743 0
-1731 -1744 0
-1731 -1745 0
-1731 -1746 0
-1731 -1747 0
-1731 -1748 0
-1731 -1749 0
-1731 -1750 0
-1731 -1751 0
-1731 -1752 0
-1731 -1753 0
-1731 -1754 0
-1731 -1755 0
-1731 -1756 0
-1731 -1757 0
-1731 -1758 0
-1731 -1759 0
-1731 -1760 0
-1731 -1761 0
-1731 -1762 0
-1731 -1763 0
-1731 -1764 0
-1731 -1765 0
-1731 -1766 0
-1731 -1767 0
-1731 -1768 0
-1731 -1769 0
-1731 -1770 0
-1731 -1771 0
-1731 -1772 0
-1731 -1773 0
-1731 -1774 0
-1731 -1775 0
-1731 -1776 0
-1731 -1777 0
-1731 -1778 0
-1731 -1779 0
-1731 -1780 0
-1731 -1781 0
-1731 -1782 0
-1731 -1783 0
-1731 -1784 0
-1731 -1785 0
-1731 -1786 0
-1731 -1787 0
-1731 -1788 0
-1731 -1789 0
-1731 -1790 0
-1731 -1791 0
-1731 -1792 0
-1731 -1793 0
-1731 -1794 0
-1731 -1795 0
-1731 -1796 0
-1731 -1797 0
-1731 -1798 0
-1731 -1799 0
-1732 -1733 0
-1732 -1734 0
-1732 -1735 0
-1732 -1736 0
-1732 -1737 0
-1732 -1738 0
-1732 -1739 0
-1732 -1740 0
-1732 -1741 0
-1732 -1742 0
-1732 -1743 0
-1732 -1744 0
-1732 -1745 0
-1732 -1746 0
-1732 -1747 0
-1732 -1748 0
-1732 -1749 0
-1732 -1750 0
-1732 -1751 0
-1732 -1752 0
-1732 -1753 0
-1732 -1754 0
-1732 -1755 0
-1732 -1756 0
-1732 -1757 0
-1732 -1758 0
-1732 -1759 0
-1732 -1760 0
-1732 -1761 0
-1732 -1762 0
-1732 -1763 0
-1732 -1764 0
-1732 -1765 0
-1732 -1766 0
-1732 -1767 0
-1732 -1768 0
-1732 -1769 0
-1732 -1770 0
-1732 -1771 0
-1732 -1772 0
-1732 -1773 0
-1732 -1774 0
-1732 -1775 0
-1732 -1776 0
-1732 -1777 0
-1732 -1778 0
-1732 -1779 0
-1732 -1780 0
-1732 -1781 0
-1732 -1782 0
-1732 -1783 0
-1732 -1784 0
-1732 -1785 0
-1732 -1786 0
-1732 -1787 0
-1732 -1788 0
-1732 -1789 0
-1732 -1790 0
-1732 -1791 0
-1732 -1792 0
-1732 -1793 0
-1732 -1794 0
-1732 -1795 0
-1732 -1796 0
-1732 -1797 0
-1732 -1798 0
-1732 -1799 0
-1733 -1734 0
-1733 -1735 0
-1733 -1736 0
-1733 -1737 0
-1733 -1738 0
-1733 -1739 0
-1733 -1740 0
-1733 -1741 0
-1733 -1742 0
-1733 -1743 0
-1733 -1744 0
-1733 -1745 0
-1733 -1746 0
-1733 -1747 0
-1733 -1748 0
-1733 -1749 0
-1733 -1750 0
-1733 -1751 0
-1733 -1752 0
-1733 -1753 0
-1733 -1754 0
-1733 -1755 0
-1733 -1756 0
-1733 -1757 0
-1733 -1758 0
-1733 -1759 0
-1733 -1760 0
-1733 -1761 0
-1733 -1762 0
-1733 -1763 0
-1733 -1764 0
-1733 -1765 0
-1733 -1766 0
-1733 -1767 0
-1733 -1768 0
-1733 -1769 0
-1733 -1770 0
-1733 -1771 0
-1733 -1772 0
-1733 -1773 0
-1733 -1774 0
-1733 -1775 0
-1733 -1776 0
-1733 -1777 0
-1733 -1778 0
-1733 -1779 0
-1733 -1780 0
-1733 -1781 0
-1733 -1782 0
-1733 -1783 0
-1733 -1784 0
-1733 -1785 0
-1733 -1786 0
-1733 -1787 0
-1733 -1788 0
-1733 -1789 0
-1733 -1790 0
-1733 -1791 0
-1733 -1792 0
-1733 -1793 0
-1733 -1794 0
-1733 -1795 0
-1733 -1796 0
-1733 -1797 0
-1733 -1798 0
-1733 -1799 0
-1734 -1735 0
-1734 -1736 0
-1734 -1737 0
-1734 -1738 0
-1734 -1739 0
-1734 -1740 0
-1734 -1741 0
-1734 -1742 0
-1734 -1743 0
-1734 -1744 0
-1734 -1745 0
-1734 -1746 0
-1734 -1747 0
-1734 -1748 0
-1734 -1749 0
-1734 -1750 0
-1734 -1751 0
-1734 -1752 0
-1734 -1753 0
-1734 -1754 0
-1734 -1755 0
-1734 -1756 0
-1734 -1757 0
-1734 -1758 0
-1734 -1759 0
-1734 -1760 0
-1734 -1761 0
-1734 -1762 0
-1734 -1763 0
-1734 -1764 0
-1734 -1765 0
-1734 -1766 0
-1734 -1767 0
-1734 -1768 0
-1734 -1769 0
-1734 -1770 0
-1734 -1771 0
-1734 -1772 0
-1734 -1773 0
-1734 -1774 0
-1734 -1775 0
-1734 -1776 0
-1734 -1777 0
-1734 -1778 0
-1734 -1779 0
-1734 -1780 0
-1734 -1781 0
-1734 -1782 0
-1734 -1783 0
-1734 -1784 0
-1734 -1785 0
-1734 -1786 0
-1734 -1787 0
-1734 -1788 0
-1734 -1789 0
-1734 -1790 0
-1734 -1791 0
-1734 -1792 0
-1734 -1793 0
-1734 -1794 0
-1734 -1795 0
-1734 -1796 0
-1734 -1797 0
-1734 -1798 0
-1734 -1799 0
-1735 -1736 0
-1735 -1737 0
-1735 -1738 0
-1735 -1739 0
-1735 -1740 0
-1735 -1741 0
-1735 -1742 0
-1735 -1743 0
-1735 -1744 0
-1735 -1745 0
-1735 -1746 0
-1735 -1747 0
-1735 -1748 0
-1735 -1749 0
-1735 -1750 0
-1735 -1751 0
-1735 -1752 0
-1735 -1753 0
-1735 -1754 0
-1735 -1755 0
-1735 -1756 0
-1735 -1757 0
-1735 -1758 0
-1735 -1759 0
-1735 -1760 0
-1735 -1761 0
-1735 -1762 0
-1735 -1763 0
-1735 -1764 0
-1735 -1765 0
-1735 -1766 0
-1735 -1767 0
-1735 -1768 0
-1735 -1769 0
-1735 -1770 0
-1735 -1771 0
-1735 -1772 0
-1735 -1773 0
-1735 -1774 0
-1735 -1775 0
-1735 -1776 0
-1735 -1777 0
-1735 -1778 0
-1735 -1779 0
-1735 -1780 0
-1735 -1781 0
-1735 -1782 0
-1735 -1783 0
-1735 -1784 0
-1735 -1785 0
-1735 -1786 0
-1735 -1787 0
-1735 -1788 0
-1735 -1789 0
-1735 -1790 0
-1735 -1791 0
-1735 -1792 0
-1735 -1793 0
-1735 -1794 0
-1735 -1795 0
-1735 -1796 0
-1735 -1797 0
-1735 -1798 0
-1735 -1799 0
-1736 -1737 0
-1736 -1738 0
-1736 -1739 0
-1736 -1740 0
-1736 -1741 0
-1736 -1742 0
-1736 -1743 0
-1736 -1744 0
-1736 -1745 0
-1736 -1746 0
-1736 -1747 0
-1736 -1748 0
-1736 -1749 0
-1736 -1750 0
-1736 -1751 0
-1736 -1752 0
-1736 -1753 0
-1736 -1754 0
-1736 -1755 0
-1736 -1756 0
-1736 -1757 0
-1736 -1758 0
-1736 -1759 0
-1736 -1760 0
-1736 -1761 0
-1736 -1762 0
-1736 -1763 0
-1736 -1764 0
-1736 -1765 0
-1736 -1766 0
-1736 -1767 0
-1736 -1768 0
-1736 -1769 0
-1736 -1770 0
-1736 -1771 0
-1736 -1772 0
-1736 -1773 0
-1736 -1774 0
-1736 -1775 0
-1736 -1776 0
-1736 -1777 0
-1736 -1778 0
-1736 -1779 0
-1736 -1780 0
-1736 -1781 0
-1736 -1782 0
-1736 -1783 0
-1736 -1784 0
-1736 -1785 0
-1736 -1786 0
-1736 -1787 0
-1736 -1788 0
-1736 -1789 0
-1736 -1790 0
-1736 -1791 0
-1736 -1792 0
-1736 -1793 0
-1736 -1794 0
-1736 -1795 0
-1736 -1796 0
-1736 -1797 0
-1736 -1798 0
-1736 -1799 0
-1737 -1738 0
-1737 -1739 0
-1737 -1740 0
-1737 -1741 0
-1737 -1742 0
-1737 -1743 0
-1737 -1744 0
-1737 -1745 0
-1737 -1746 0
-1737 -1747 0
-1737 -1748 0
-1737 -1749 0
-1737 -1750 0
-1737 -1751 0
-1737 -1752 0
-1737 -1753 0
-1737 -1754 0
-1737 -1755 0
-1737 -1756 0
-1737 -1757 0
-1737 -1758 0
-1737 -1759 0
-1737 -1760 0
-1737 -1761 0
-1737 -1762 0
-1737 -1763 0
-1737 -1764 0
-1737 -1765 0
-1737 -1766 0
-1737 -1767 0
-1737 -1768 0
-1737 -1769 0
-1737 -1770 0
-1737 -1771 0
-1737 -1772 0
-1737 -1773 0
-1737 -1774 0
-1737 -1775 0
-1737 -1776 0
-1737 -1777 0
-1737 -1778 0
-1737 -1779 0
-1737 -1780 0
-1737 -1781 0
-1737 -1782 0
-1737 -1783 0
-1737 -1784 0
-1737 -1785 0
-1737 -1786 0
-1737 -1787 0
-1737 -1788 0
-1737 -1789 0
-1737 -1790 0
-1737 -1791 0
-1737 -1792 0
-1737 -1793 0
-1737 -1794 0
-1737 -1795 0
-1737 -1796 0
-1737 -1797 0
-1737 -1798 0
-1737 -1799 0
-1738 -1739 0
-1738 -1740 0
-1738 -1741 0
-1738 -1742 0
-1738 -1743 0
-1738 -1744 0
-1738 -1745 0
-1738 -1746 0
-1738 -1747 0
-1738 -1748 0
-1738 -1749 0
-1738 -1750 0
-1738 -1751 0
-1738 -1752 0
-1738 -1753 0
-1738 -1754 0
-1738 -1755 0
-1738 -1756 0
-1738 -1757 0
-1738 -1758 0
-1738 -1759 0
-1738 -1760 0
-1738 -1761 0
-1738 -1762 0
-1738 -1763 0
-1738 -1764 0
-1738 -1765 0
-1738 -1766 0
-1738 -1767 0
-1738 -1768 0
-1738 -1769 0
-1738 -1770 0
-1738 -1771 0
-1738 -1772 0
-1738 -1773 0
-1738 -1774 0
-1738 -1775 0
-1738 -1776 0
-1738 -1777 0
-1738 -1778 0
-1738 -1779 0
-1738 -1780 0
-1738 -1781 0
-1738 -1782 0
-1738 -1783 0
-1738 -1784 0
-1738 -1785 0
-1738 -1786 0
-1738 -1787 0
-1738 -1788 0
-1738 -1789 0
-1738 -1790 0
-1738 -1791 0
-1738 -1792 0
-1738 -1793 0
-1738 -1794 0
-1738 -1795 0
-1738 -1796 0
-1738 -1797 0
-1738 -1798 0
-1738 -1799 0
-1739 -1740 0
-1739 -1741 0
-1739 -1742 0
-1739 -1743 0
-1739 -1744 0
-1739 -1745 0
-1739 -1746 0
-1739 -1747 0
-1739 -1748 0
-1739 -1749 0
-1739 -1750 0
-1739 -1751 0
-1739 -1752 0
-1739 -1753 0
-1739 -1754 0
-1739 -1755 0
-1739 -1756 0
-1739 -1757 0
-1739 -1758 0
-1739 -1759 0
-1739 -1760 0
-1739 -1761 0
-1739 -1762 0
-1739 -1763 0
-1739 -1764 0
-1739 -1765 0
-1739 -1766 0
-1739 -1767 0
-1739 -1768 0
-1739 -1769 0
-1739 -1770 0
-1739 -1771 0
-1739 -1772 0
-1739 -1773 0
-1739 -1774 0
-1739 -1775 0
-1739 -1776 0
-1739 -1777 0
-1739 -1778 0
-1739 -1779 0
-1739 -1780 0
-1739 -1781 0
-1739 -1782 0
-1739 -1783 0
-1739 -1784 0
-1739 -1785 0
-1739 -1786 0
-1739 -1787 0
-1739 -1788 0
-1739 -1789 0
-1739 -1790 0
-1739 -1791 0
-1739 -1792 0
-1739 -1793 0
-1739 -1794 0
-1739 -1795 0
-1739 -1796 0
-1739 -1797 0
-1739 -1798 0
-1739 -1799 0
-1740 -1741 0
-1740 -1742 0
-1740 -1743 0
-1740 -1744 0
-1740 -1745 0
-1740 -1746 0
-1740 -1747 0
-1740 -1748 0
-1740 -1749 0
-1740 -1750 0
-1740 -1751 0
-1740 -1752 0
-1740 -1753 0
-1740 -1754 0
-1740 -1755 0
-1740 -1756 0
-1740 -1757 0
-1740 -1758 0
-1740 -1759 0
-1740 -1760 0
-1740 -1761 0
-1740 -1762 0
-1740 -1763 0
-1740 -1764 0
-1740 -1765 0
-1740 -1766 0
-1740 -1767 0
-1740 -1768 0
-1740 -1769 0
-1740 -1770 0
-1740 -1771 0
-1740 -1772 0
-1740 -1773 0
-1740 -1774 0
-1740 -1775 0
-1740 -1776 0
-1740 -1777 0
-1740 -1778 0
-1740 -1779 0
-1740 -1780 0
-1740 -1781 0
-1740 -1782 0
-1740 -1783 0
-1740 -1784 0
-1740 -1785 0
-1740 -1786 0
-1740 -1787 0
-1740 -1788 0
-1740 -1789 0
-1740 -1790 0
-1740 -1791 0
-1740 -1792 0
-1740 -1793 0
-1740 -1794 0
-1740 -1795 0
-1740 -1796 0
-1740 -1797 0
-1740 -1798 0
-1740 -1799 0
-1741 -1742 0
-1741 -1743 0
-1741 -1744 0
-1741 -1745 0
-1741 -1746 0
-1741 -1747 0
-1741 -1748 0
-1741 -1749 0
-1741 -1750 0
-1741 -1751 0
-1741 -1752 0
-1741 -1753 0
-1741 -1754 0
-1741 -1755 0
-1741 -1756 0
-1741 -1757 0
-1741 -1758 0
-1741 -1759 0
-1741 -1760 0
-1741 -1761 0
-1741 -1762 0
-1741 -1763 0
-1741 -1764 0
-1741 -1765 0
-1741 -1766 0
-1741 -1767 0
-1741 -1768 0
-1741 -1769 0
-1741 -1770 0
-1741 -1771 0
-1741 -1772 0
-1741 -1773 0
-1741 -1774 0
-1741 -1775 0
-1741 -1776 0
-1741 -1777 0
-1741 -1778 0
-1741 -1779 0
-1741 -1780 0
-1741 -1781 0
-1741 -1782 0
-1741 -1783 0
-1741 -1784 0
-1741 -1785 0
-1741 -1786 0
-1741 -1787 0
-1741 -1788 0
-1741 -1789 0
-1741 -1790 0
-1741 -1791 0
-1741 -1792 0
-1741 -1793 0
-1741 -1794 0
-1741 -1795 0
-1741 -1796 0
-1741 -1797 0
-1741 -1798 0
-1741 -1799 0
-1742 -1743 0
-1742 -1744 0
-1742 -1745 0
-1742 -1746 0
-1742 -1747 0
-1742 -1748 0
-1742 -1749 0
-1742 -1750 0
-1742 -1751 0
-1742 -1752 0
-1742 -1753 0
-1742 -1754 0
-1742 -1755 0
-1742 -1756 0
-1742 -1757 0
-1742 -1758 0
-1742 -1759 0
-1742 -1760 0
-1742 -1761 0
-1742 -1762 0
-1742 -1763 0
-1742 -1764 0
-1742 -1765 0
-1742 -1766 0
-1742 -1767 0
-1742 -1768 0
-1742 -1769 0
-1742 -1770 0
-1742 -1771 0
-1742 -1772 0
-1742 -1773 0
-1742 -1774 0
-1742 -1775 0
-1742 -1776 0
-1742 -1777 0
-1742 -1778 0
-1742 -1779 0
-1742 -1780 0
-1742 -1781 0
-1742 -1782 0
-1742 -1783 0
-1742 -1784 0
-1742 -1785 0
-1742 -1786 0
-1742 -1787 0
-1742 -1788 0
-1742 -1789 0
-1742 -1790 0
-1742 -1791 0
-1742 -1792 0
-1742 -1793 0
-1742 -1794 0
-1742 -1795 0
-1742 -1796 0
-1742 -1797 0
-1742 -1798 0
-1742 -1799 0
-1743 -1744 0
-1743 -1745 0
-1743 -1746 0
-1743 -1747 0
-1743 -1748 0
-1743 -1749 0
-1743 -1750 0
-1743 -1751 0
-1743 -1752 0
-1743 -1753 0
-1743 -1754 0
-1743 -1755 0
-1743 -1756 0
-1743 -1757 0
-1743 -1758 0
-1743 -1759 0
-1743 -1760 0
-1743 -1761 0
-1743 -1762 0
-1743 -1763 0
-1743 -1764 0
-1743 -1765 0
-1743 -1766 0
-1743 -1767 0
-1743 -1768 0
-1743 -1769 0
-1743 -1770 0
-1743 -1771 0
-1743 -1772 0
-1743 -1773 0
-1743 -1774 0
-1743 -1775 0
-1743 -1776 0
-1743 -1777 0
-1743 -1778 0
-1743 -1779 0
-1743 -1780 0
-1743 -1781 0
-1743 -1782 0
-1743 -1783 0
-1743 -1784 0
-1743 -1785 0
-1743 -1786 0
-1743 -1787 0
-1743 -1788 0
-1743 -1789 0
-1743 -1790 0
-1743 -1791 0
-1743 -1792 0
-1743 -1793 0
-1743 -1794 0
-1743 -1795 0
-1743 -1796 0
-1743 -1797 0
-1743 -1798 0
-1743 -1799 0
-1744 -1745 0
-1744 -1746 0
-1744 -1747 0
-1744 -1748 0
-1744 -1749 0
-1744 -1750 0
-1744 -1751 0
-1744 -1752 0
-1744 -1753 0
-1744 -1754 0
-1744 -1755 0
-1744 -1756 0
-1744 -1757 0
-1744 -1758 0
-1744 -1759 0
-1744 -1760 0
-1744 -1761 0
-1744 -1762 0
-1744 -1763 0
-1744 -1764 0
-1744 -1765 0
-1744 -1766 0
-1744 -1767 0
-1744 -1768 0
-1744 -1769 0
-1744 -1770 0
-1744 -1771 0
-1744 -1772 0
-1744 -1773 0
-1744 -1774 0
-1744 -1775 0
-1744 -1776 0
-1744 -1777 0
-1744 -1778 0
-1744 -1779 0
-1744 -1780 0
-1744 -1781 0
-1744 -1782 0
-1744 -1783 0
-1744 -1784 0
-1744 -1785 0
-1744 -1786 0
-1744 -1787 0
-1744 -1788 0
-1744 -1789 0
-1744 -1790 0
-1744 -1791 0
-1744 -1792 0
-1744 -1793 0
-1744 -1794 0
-1744 -1795 0
-1744 -1796 0
-1744 -1797 0
-1744 -1798 0
-1744 -1799 0
-1745 -1746 0
-1745 -1747 0
-1745 -1748 0
-1745 -1749 0
-1745 -1750 0
-1745 -1751 0
-1745 -1752 0
-1745 -1753 0
-1745 -1754 0
-1745 -1755 0
-1745 -1756 0
-1745 -1757 0
-1745 -1758 0
-1745 -1759 0
-1745 -1760 0
-1745 -1761 0
-1745 -1762 0
-1745 -1763 0
-1745 -1764 0
-1745 -1765 0
-1745 -1766 0
-1745 -1767 0
-1745 -1768 0
-1745 -1769 0
-1745 -1770 0
-1745 -1771 0
-1745 -1772 0
-1745 -1773 0
-1745 -1774 0
-1745 -1775 0
-1745 -1776 0
-1745 -1777 0
-1745 -1778 0
-1745 -1779 0
-1745 -1780 0
-1745 -1781 0
-1745 -1782 0
-1745 -1783 0
-1745 -1784 0
-1745 -1785 0
-1745 -1786 0
-1745 -1787 0
-1745 -1788 0
-1745 -1789 0
-1745 -1790 0
-1745 -1791 0
-1745 -1792 0
-1745 -1793 0
-1745 -1794 0
-1745 -1795 0
-1745 -1796 0
-1745 -1797 0
-1745 -1798 0
-1745 -1799 0
-1746 -1747 0
-1746 -1748 0
-1746 -1749 0
-1746 -1750 0
-1746 -1751 0
-1746 -1752 0
-1746 -1753 0
-1746 -1754 0
-1746 -1755 0
-1746 -1756 0
-1746 -1757 0
-1746 -1758 0
-1746 -1759 0
-1746 -1760 0
-1746 -1761 0
-1746 -1762 0
-1746 -1763 0
-1746 -1764 0
-1746 -1765 0
-1746 -1766 0
-1746 -1767 0
-1746 -1768 0
-1746 -1769 0
-1746 -1770 0
-1746 -1771 0
-1746 -1772 0
-1746 -1773 0
-1746 -1774 0
-1746 -1775 0
-1746 -1776 0
-1746 -1777 0
-1746 -1778 0
-1746 -1779 0
-1746 -1780 0
-1746 -1781 0
-1746 -1782 0
-1746 -1783 0
-1746 -1784 0
-1746 -1785 0
-1746 -1786 0
-1746 -1787 0
-1746 -1788 0
-1746 -1789 0
-1746 -1790 0
-1746 -1791 0
-1746 -1792 0
-1746 -1793 0
-1746 -1794 0
-1746 -1795 0
-1746 -1796 0
-1746 -1797 0
-1746 -1798 0
-1746 -1799 0
-1747 -1748 0
-1747 -1749 0
-1747 -1750 0
-1747 -1751 0
-1747 -1752 0
-1747 -1753 0
-1747 -1754 0
-1747 -1755 0
-1747 -1756 0
-1747 -1757 0
-1747 -1758 0
-1747 -1759 0
-1747 -1760 0
-1747 -1761 0
-1747 -1762 0
-1747 -1763 0
-1747 -1764 0
-1747 -1765 0
-1747 -1766 0
-1747 -1767 0
-1747 -1768 0
-1747 -1769 0
-1747 -1770 0
-1747 -1771 0
-1747 -1772 0
-1747 -1773 0
-1747 -1774 0
-1747 -1775 0
-1747 -1776 0
-1747 -1777 0
-1747 -1778 0
-1747 -1779 0
-1747 -1780 0
-1747 -1781 0
-1747 -1782 0
-1747 -1783 0
-1747 -1784 0
-1747 -1785 0
-1747 -1786 0
-1747 -1787 0
-1747 -1788 0
-1747 -1789 0
-1747 -1790 0
-1747 -1791 0
-1747 -1792 0
-1747 -1793 0
-1747 -1794 0
-1747 -1795 0
-1747 -1796 0
-1747 -1797 0
-1747 -1798 0
-1747 -1799 0
-1748 -1749 0
-1748 -1750 0
-1748 -1751 0
-1748 -1752 0
-1748 -1753 0
-1748 -1754 0
-1748 -1755 0
-1748 -1756 0
-1748 -1757 0
-1748 -1758 0
-1748 -1759 0
-1748 -1760 0
-1748 -1761 0
-1748 -1762 0
-1748 -1763 0
-1748 -1764 0
-1748 -1765 0
-1748 -1766 0
-1748 -1767 0
-1748 -1768 0
-1748 -1769 0
-1748 -1770 0
-1748 -1771 0
-1748 -1772 0
-1748 -1773 0
-1748 -1774 0
-1748 -1775 0
-1748 -1776 0
-1748 -1777 0
-1748 -1778 0
-1748 -1779 0
-1748 -1780 0
-1748 -1781 0
-1748 -1782 0
-1748 -1783 0
-1748 -1784 0
-1748 -1785 0
-1748 -1786 0
-1748 -1787 0
-1748 -1788 0
-1748 -1789 0
-1748 -1790 0
-1748 -1791 0
-1748 -1792 0
-1748 -1793 0
-1748 -1794 0
-1748 -1795 0
-1748 -1796 0
-1748 -1797 0
-1748 -1798 0
-1748 -1799 0
-1749 -1750 0
-1749 -1751 0
-1749 -1752 0
-1749 -1753 0
-1749 -1754 0
-1749 -1755 0
-1749 -1756 0
-1749 -1757 0
-1749 -1758 0
-1749 -1759 0
-1749 -1760 0
-1749 -1761 0
-1749 -1762 0
-1749 -1763 0
-1749 -1764 0
-1749 -1765 0
-1749 -1766 0
-1749 -1767 0
-1749 -1768 0
-1749 -1769 0
-1749 -1770 0
-1749 -1771 0
-1749 -1772 0
-1749 -1773 0
-1749 -1774 0
-1749 -1775 0
-1749 -1776 0
-1749 -1777 0
-1749 -1778 0
-1749 -1779 0
-1749 -1780 0
-1749 -1781 0
-1749 -1782 0
-1749 -1783 0
-1749 -1784 0
-1749 -1785 0
-1749 -1786 0
-1749 -1787 0
-1749 -1788 0
-1749 -1789 0
-1749 -1790 0
-1749 -1791 0
-1749 -1792 0
-1749 -1793 0
-1749 -1794 0
-1749 -1795 0
-1749 -1796 0
-1749 -1797 0
-1749 -1798 0
-1749 -1799 0
-1750 -1751 0
-1750 -1752 0
-1750 -1753 0
-1750 -1754 0
-1750 -1755 0
-1750 -1756 0
-1750 -1757 0
-1750 -1758 0
-1750 -1759 0
-1750 -1760 0
-1750 -1761 0
-1750 -1762 0
-1750 -1763 0
-1750 -1764 0
-1750 -1765 0
-1750 -1766 0
-1750 -1767 0
-1750 -1768 0
-1750 -1769 0
-1750 -1770 0
-1750 -1771 0
-1750 -1772 0
-1750 -1773 0
-1750 -1774 0
-1750 -1775 0
-1750 -1776 0
-1750 -1777 0
-1750 -1778 0
-1750 -1779 0
-1750 -1780 0
-1750 -1781 0
-1750 -1782 0
-1750 -1783 0
-1750 -1784 0
-1750 -1785 0
-1750 -1786 0
-1750 -1787 0
-1750 -1788 0
-1750 -1789 0
-1750 -1790 0
-1750 -1791 0
-1750 -1792 0
-1750 -1793 0
-1750 -1794 0
-1750 -1795 0
-1750 -1796 0
-1750 -1797 0
-1750 -1798 0
-1750 -1799 0
-1751 -1752 0
-1751 -1753 0
-1751 -1754 0
-1751 -1755 0
-1751 -1756 0
-1751 -1757 0
-1751 -1758 0
-1751 -1759 0
-1751 -1760 0
-1751 -1761 0
-1751 -1762 0
-1751 -1763 0
-1751 -1764 0
-1751 -1765 0
-1751 -1766 0
-1751 -1767 0
-1751 -1768 0
-1751 -1769 0
-1751 -1770 0
-1751 -1771 0
-1751 -1772 0
-1751 -1773 0
-1751 -1774 0
-1751 -1775 0
-1751 -1776 0
-1751 -1777 0
-1751 -1778 0
-1751 -1779 0
-1751 -1780 0
-1751 -1781 0
-1751 -1782 0
-1751 -1783 0
-1751 -1784 0
-1751 -1785 0
-1751 -1786 0
-1751 -1787 0
-1751 -1788 0
-1751 -1789 0
-1751 -1790 0
-1751 -1791 0
-1751 -1792 0
-1751 -1793 0
-1751 -1794 0
-1751 -1795 0
-1751 -1796 0
-1751 -1797 0
-1751 -1798 0
-1751 -1799 0
-1752 -1753 0
-1752 -1754 0
-1752 -1755 0
-1752 -1756 0
-1752 -1757 0
-1752 -1758 0
-1752 -1759 0
-1752 -1760 0
-1752 -1761 0
-1752 -1762 0
-1752 -1763 0
-1752 -1764 0
-1752 -1765 0
-1752 -1766 0
-1752 -1767 0
-1752 -1768 0
-1752 -1769 0
-1752 -1770 0
-1752 -1771 0
-1752 -1772 0
-1752 -1773 0
-1752 -1774 0
-1752 -1775 0
-1752 -1776 0
-1752 -1777 0
-1752 -1778 0
-1752 -1779 0
-1752 -1780 0
-1752 -1781 0
-1752 -1782 0
-1752 -1783 0
-1752 -1784 0
-1752 -1785 0
-1752 -1786 0
-1752 -1787 0
-1752 -1788 0
-1752 -1789 0
-1752 -1790 0
-1752 -1791 0
-1752 -1792 0
-1752 -1793 0
-1752 -1794 0
-1752 -1795 0
-1752 -1796 0
-1752 -1797 0
-1752 -1798 0
-1752 -1799 0
-1753 -1754 0
-1753 -1755 0
-1753 -1756 0
-1753 -1757 0
-1753 -1758 0
-1753 -1759 0
-1753 -1760 0
-1753 -1761 0
-1753 -1762 0
-1753 -1763 0
-1753 -1764 0
-1753 -1765 0
-1753 -1766 0
-1753 -1767 0
-1753 -1768 0
-1753 -1769 0
-1753 -1770 0
-1753 -1771 0
-1753 -1772 0
-1753 -1773 0
-1753 -1774 0
-1753 -1775 0
-1753 -1776 0
-1753 -1777 0
-1753 -1778 0
-1753 -1779 0
-1753 -1780 0
-1753 -1781 0
-1753 -1782 0
-1753 -1783 0
-1753 -1784 0
-1753 -1785 0
-1753 -1786 0
-1753 -1787 0
-1753 -1788 0
-1753 -1789 0
-1753 -1790 0
-1753 -1791 0
-1753 -1792 0
-1753 -1793 0
-1753 -1794 0
-1753 -1795 0
-1753 -1796 0
-1753 -1797 0
-1753 -1798 0
-1753 -1799 0
-1754 -1755 0
-1754 -1756 0
-1754 -1757 0
-1754 -1758 0
-1754 -1759 0
-1754 -1760 0
-1754 -1761 0
-1754 -1762 0
-1754 -1763 0
-1754 -1764 0
-1754 -1765 0
-1754 -1766 0
-1754 -1767 0
-1754 -1768 0
-1754 -1769 0
-1754 -1770 0
-1754 -1771 0
-1754 -1772 0
-1754 -1773 0
-1754 -1774 0
-1754 -1775 0
-1754 -1776 0
-1754 -1777 0
-1754 -1778 0
-1754 -1779 0
-1754 -1780 0
-1754 -1781 0
-1754 -1782 0
-1754 -1783 0
-1754 -1784 0
-1754 -1785 0
-1754 -1786 0
-1754 -1787 0
-1754 -1788 0
-1754 -1789 0
-1754 -1790 0
-1754 -1791 0
-1754 -1792 0
-1754 -1793 0
-1754 -1794 0
-1754 -1795 0
-1754 -1796 0
-1754 -1797 0
-1754 -1798 0
-1754 -1799 0
-1755 -1756 0
-1755 -1757 0
-1755 -1758 0
-1755 -1759 0
-1755 -1760 0
-1755 -1761 0
-1755 -1762 0
-1755 -1763 0
-1755 -1764 0
-1755 -1765 0
-1755 -1766 0
-1755 -1767 0
-1755 -1768 0
-1755 -1769 0
-1755 -1770 0
-1755 -1771 0
-1755 -1772 0
-1755 -1773 0
-1755 -1774 0
-1755 -1775 0
-1755 -1776 0
-1755 -1777 0
-1755 -1778 0
-1755 -1779 0
-1755 -1780 0
-1755 -1781 0
-1755 -1782 0
-1755 -1783 0
-1755 -1784 0
-1755 -1785 0
-1755 -1786 0
-1755 -1787 0
-1755 -1788 0
-1755 -1789 0
-1755 -1790 0
-1755 -1791 0
-1755 -1792 0
-1755 -1793 0
-1755 -1794 0
-1755 -1795 0
-1755 -1796 0
-1755 -1797 0
-1755 -1798 0
-1755 -1799 0
-1756 -1757 0
-1756 -1758 0
-1756 -1759 0
-1756 -1760 0
-1756 -1761 0
-1756 -1762 0
-1756 -1763 0
-1756 -1764 0
-1756 -1765 0
-1756 -1766 0
-1756 -1767 0
-1756 -1768 0
-1756 -1769 0
-1756 -1770 0
-1756 -1771 0
-1756 -1772 0
-1756 -1773 0
-1756 -1774 0
-1756 -1775 0
-1756 -1776 0
-1756 -1777 0
-1756 -1778 0
-1756 -1779 0
-1756 -1780 0
-1756 -1781 0
-1756 -1782 0
-1756 -1783 0
-1756 -1784 0
-1756 -1785 0
-1756 -1786 0
-1756 -1787 0
-1756 -1788 0
-1756 -1789 0
-1756 -1790 0
-1756 -1791 0
-1756 -1792 0
-1756 -1793 0
-1756 -1794 0
-1756 -1795 0
-1756 -1796 0
-1756 -1797 0
-1756 -1798 0
-1756 -1799 0
-1757 -1758 0
-1757 -1759 0
-1757 -1760 0
-1757 -1761 0
-1757 -1762 0
-1757 -1763 0
-1757 -1764 0
-1757 -1765 0
-1757 -1766 0
-1757 -1767 0
-1757 -1768 0
-1757 -1769 0
-1757 -1770 0
-1757 -1771 0
-1757 -1772 0
-1757 -1773 0
-1757 -1774 0
-1757 -1775 0
-1757 -1776 0
-1757 -1777 0
-1757 -1778 0
-1757 -1779 0
-1757 -1780 0
-1757 -1781 0
-1757 -1782 0
-1757 -1783 0
-1757 -1784 0
-1757 -1785 0
-1757 -1786 0
-1757 -1787 0
-1757 -1788 0
-1757 -1789 0
-1757 -1790 0
-1757 -1791 0
-1757 -1792 0
-1757 -1793 0
-1757 -1794 0
-1757 -1795 0
-1757 -1796 0
-1757 -1797 0
-1757 -1798 0
-1757 -1799 0
-1758 -1759 0
-1758 -1760 0
-1758 -1761 0
-1758 -1762 0
-1758 -1763 0
-1758 -1764 0
-1758 -1765 0
-1758 -1766 0
-1758 -1767 0
-1758 -1768 0
-1758 -1769 0
-1758 -1770 0
-1758 -1771 0
-1758 -1772 0
-1758 -1773 0
-1758 -1774 0
-1758 -1775 0
-1758 -1776 0
-1758 -1777 0
-1758 -1778 0
-1758 -1779 0
-1758 -1780 0
-1758 -1781 0
-1758 -1782 0
-1758 -1783 0
-1758 -1784 0
-1758 -1785 0
-1758 -1786 0
-1758 -1787 0
-1758 -1788 0
-1758 -1789 0
-1758 -1790 0
-1758 -1791 0
-1758 -1792 0
-1758 -1793 0
-1758 -1794 0
-1758 -1795 0
-1758 -1796 0
-1758 -1797 0
-1758 -1798 0
-1758 -1799 0
-1759 -1760 0
-1759 -1761 0
-1759 -1762 0
-1759 -1763 0
-1759 -1764 0
-1759 -1765 0
-1759 -1766 0
-1759 -1767 0
-1759 -1768 0
-1759 -1769 0
-1759 -1770 0
-1759 -1771 0
-1759 -1772 0
-1759 -1773 0
-1759 -1774 0
-1759 -1775 0
-1759 -1776 0
-1759 -1777 0
-1759 -1778 0
-1759 -1779 0
-1759 -1780 0
-1759 -1781 0
-1759 -1782 0
-1759 -1783 0
-1759 -1784 0
-1759 -1785 0
-1759 -1786 0
-1759 -1787 0
-1759 -1788 0
-1759 -1789 0
-1759 -1790 0
-1759 -1791 0
-1759 -1792 0
-1759 -1793 0
-1759 -1794 0
-1759 -1795 0
-1759 -1796 0
-1759 -1797 0
-1759 -1798 0
-1759 -1799 0
-1760 -1761 0
-1760 -1762 0
-1760 -1763 0
-1760 -1764 0
-1760 -1765 0
-1760 -1766 0
-1760 -1767 0
-1760 -1768 0
-1760 -1769 0
-1760 -1770 0
-1760 -1771 0
-1760 -1772 0
-1760 -1773 0
-1760 -1774 0
-1760 -1775 0
-1760 -1776 0
-1760 -1777 0
-1760 -1778 0
-1760 -1779 0
-1760 -1780 0
-1760 -1781 0
-1760 -1782 0
-1760 -1783 0
-1760 -1784 0
-1760 -1785 0
-1760 -1786 0
-1760 -1787 0
-1760 -1788 0
-1760 -1789 0
-1760 -1790 0
-1760 -1791 0
-1760 -1792 0
-1760 -1793 0
-1760 -1794 0
-1760 -1795 0
-1760 -1796 0
-1760 -1797 0
-1760 -1798 0
-1760 -1799 0
-1761 -1762 0
-1761 -1763 0
-1761 -1764 0
-1761 -1765 0
-1761 -1766 0
-1761 -1767 0
-1761 -1768 0
-1761 -1769 0
-1761 -1770 0
-1761 -1771 0
-1761 -1772 0
-1761 -1773 0
-1761 -1774 0
-1761 -1775 0
-1761 -1776 0
-1761 -1777 0
-1761 -1778 0
-1761 -1779 0
-1761 -1780 0
-1761 -1781 0
-1761 -1782 0
-1761 -1783 0
-1761 -1784 0
-1761 -1785 0
-1761 -1786 0
-1761 -1787 0
-1761 -1788 0
-1761 -1789 0
-1761 -1790 0
-1761 -1791 0
-1761 -1792 0
-1761 -1793 0
-1761 -1794 0
-1761 -1795 0
-1761 -1796 0
-1761 -1797 0
-1761 -1798 0
-1761 -1799 0
-1762 -1763 0
-1762 -1764 0
-1762 -1765 0
-1762 -1766 0
-1762 -1767 0
-1762 -1768 0
-1762 -1769 0
-1762 -1770 0
-1762 -1771 0
-1762 -1772 0
-1762 -1773 0
-1762 -1774 0
-1762 -1775 0
-1762 -1776 0
-1762 -1777 0
-1762 -1778 0
-1762 -1779 0
-1762 -1780 0
-1762 -1781 0
-1762 -1782 0
-1762 -1783 0
-1762 -1784 0
-1762 -1785 0
-1762 -1786 0
-1762 -1787 0
-1762 -1788 0
-1762 -1789 0
-1762 -1790 0
-1762 -1791 0
-1762 -1792 0
-1762 -1793 0
-1762 -1794 0
-1762 -1795 0
-1762 -1796 0
-1762 -1797 0
-1762 -1798 0
-1762 -1799 0
-1763 -1764 0
-1763 -1765 0
-1763 -1766 0
-1763 -1767 0
-1763 -1768 0
-1763 -1769 0
-1763 -1770 0
-1763 -1771 0
-1763 -1772 0
-1763 -1773 0
-1763 -1774 0
-1763 -1775 0
-1763 -1776 0
-1763 -1777 0
-1763 -1778 0
-1763 -1779 0
-1763 -1780 0
-1763 -1781 0
-1763 -1782 0
-1763 -1783 0
-1763 -1784 0
-1763 -1785 0
-1763 -1786 0
-1763 -1787 0
-1763 -1788 0
-1763 -1789 0
-1763 -1790 0
-1763 -1791 0
-1763 -1792 0
-1763 -1793 0
-1763 -1794 0
-1763 -1795 0
-1763 -1796 0
-1763 -1797 0
-1763 -1798 0
-1763 -1799 0
-1764 -1765 0
-1764 -1766 0
-1764 -1767 0
-1764 -1768 0
-1764 -1769 0
-1764 -1770 0
-1764 -1771 0
-1764 -1772 0
-1764 -1773 0
-1764 -1774 0
-1764 -1775 0
-1764 -1776 0
-1764 -1777 0
-1764 -1778 0
-1764 -1779 0
-1764 -1780 0
-1764 -1781 0
-1764 -1782 0
-1764 -1783 0
-1764 -1784 0
-1764 -1785 0
-1764 -1786 0
-1764 -1787 0
-1764 -1788 0
-1764 -1789 0
-1764 -1790 0
-1764 -1791 0
-1764 -1792 0
-1764 -1793 0
-1764 -1794 0
-1764 -1795 0
-1764 -1796 0
-1764 -1797 0
-1764 -1798 0
-1764 -1799 0
-1765 -1766 0
-1765 -1767 0
-1765 -1768 0
-1765 -1769 0
-1765 -1770 0
-1765 -1771 0
-1765 -1772 0
-1765 -1773 0
-1765 -1774 0
-1765 -1775 0
-1765 -1776 0
-1765 -1777 0
-1765 -1778 0
-1765 -1779 0
-1765 -1780 0
-1765 -1781 0
-1765 -1782 0
-1765 -1783 0
-1765 -1784 0
-1765 -1785 0
-1765 -1786 0
-1765 -1787 0
-1765 -1788 0
-1765 -1789 0
-1765 -1790 0
-1765 -1791 0
-1765 -1792 0
-1765 -1793 0
-1765 -1794 0
-1765 -1795 0
-1765 -1796 0
-1765 -1797 0
-1765 -1798 0
-1765 -1799 0
-1766 -1767 0
-1766 -1768 0
-1766 -1769 0
-1766 -1770 0
-1766 -1771 0
-1766 -1772 0
-1766 -1773 0
-1766 -1774 0
-1766 -1775 0
-1766 -1776 0
-1766 -1777 0
-1766 -1778 0
-1766 -1779 0
-1766 -1780 0
-1766 -1781 0
-1766 -1782 0
-1766 -1783 0
-1766 -1784 0
-1766 -1785 0
-1766 -1786 0
-1766 -1787 0
-1766 -1788 0
-1766 -1789 0
-1766 -1790 0
-1766 -1791 0
-1766 -1792 0
-1766 -1793 0
-1766 -1794 0
-1766 -1795 0
-1766 -1796 0
-1766 -1797 0
-1766 -1798 0
-1766 -1799 0
-1767 -1768 0
-1767 -1769 0
-1767 -1770 0
-1767 -1771 0
-1767 -1772 0
-1767 -1773 0
-1767 -1774 0
-1767 -1775 0
-1767 -1776 0
-1767 -1777 0
-1767 -1778 0
-1767 -1779 0
-1767 -1780 0
-1767 -1781 0
-1767 -1782 0
-1767 -1783 0
-1767 -1784 0
-1767 -1785 0
-1767 -1786 0
-1767 -1787 0
-1767 -1788 0
-1767 -1789 0
-1767 -1790 0
-1767 -1791 0
-1767 -1792 0
-1767 -1793 0
-1767 -1794 0
-1767 -1795 0
-1767 -1796 0
-1767 -1797 0
-1767 -1798 0
-1767 -1799 0
-1768 -1769 0
-1768 -1770 0
-1768 -1771 0
-1768 -1772 0
-1768 -1773 0
-1768 -1774 0
-1768 -1775 0
-1768 -1776 0
-1768 -1777 0
-1768 -1778 0
-1768 -1779 0
-1768 -1780 0
-1768 -1781 0
-1768 -1782 0
-1768 -1783 0
-1768 -1784 0
-1768 -1785 0
-1768 -1786 0
-1768 -1787 0
-1768 -1788 0
-1768 -1789 0
-1768 -1790 0
-1768 -1791 0
-1768 -1792 0
-1768 -1793 0
-1768 -1794 0
-1768 -1795 0
-1768 -1796 0
-1768 -1797 0
-1768 -1798 0
-1768 -1799 0
-1769 -1770 0
-1769 -1771 0
-1769 -1772 0
-1769 -1773 0
-1769 -1774 0
-1769 -1775 0
-1769 -1776 0
-1769 -1777 0
-1769 -1778 0
-1769 -1779 0
-1769 -1780 0
-1769 -1781 0
-1769 -1782 0
-1769 -1783 0
-1769 -1784 0
-1769 -1785 0
-1769 -1786 0
-1769 -1787 0
-1769 -1788 0
-1769 -1789 0
-1769 -1790 0
-1769 -1791 0
-1769 -1792 0
-1769 -1793 0
-1769 -1794 0
-1769 -1795 0
-1769 -1796 0
-1769 -1797 0
-1769 -1798 0
-1769 -1799 0
-1770 -1771 0
-1770 -1772 0
-1770 -1773 0
-1770 -1774 0
-1770 -1775 0
-1770 -1776 0
-1770 -1777 0
-1770 -1778 0
-1770 -1779 0
-1770 -1780 0
-1770 -1781 0
-1770 -1782 0
-1770 -1783 0
-1770 -1784 0
-1770 -1785 0
-1770 -1786 0
-1770 -1787 0
-1770 -1788 0
-1770 -1789 0
-1770 -1790 0
-1770 -1791 0
-1770 -1792 0
-1770 -1793 0
-1770 -1794 0
-1770 -1795 0
-1770 -1796 0
-1770 -1797 0
-1770 -1798 0
-1770 -1799 0
-1771 -1772 0
-1771 -1773 0
-1771 -1774 0
-1771 -1775 0
-1771 -1776 0
-1771 -1777 0
-1771 -1778 0
-1771 -1779 0
-1771 -1780 0
-1771 -1781 0
-1771 -1782 0
-1771 -1783 0
-1771 -1784 0
-1771 -1785 0
-1771 -1786 0
-1771 -1787 0
-1771 -1788 0
-1771 -1789 0
-1771 -1790 0
-1771 -1791 0
-1771 -1792 0
-1771 -1793 0
-1771 -1794 0
-1771 -1795 0
-1771 -1796 0
-1771 -1797 0
-1771 -1798 0
-1771 -1799 0
-1772 -1773 0
-1772 -1774 0
-1772 -1775 0
-1772 -1776 0
-1772 -1777 0
-1772 -1778 0
-1772 -1779 0
-1772 -1780 0
-1772 -1781 0
-1772 -1782 0
-1772 -1783 0
-1772 -1784 0
-1772 -1785 0
-1772 -1786 0
-1772 -1787 0
-1772 -1788 0
-1772 -1789 0
-1772 -1790 0
-1772 -1791 0
-1772 -1792 0
-1772 -1793 0
-1772 -1794 0
-1772 -1795 0
-1772 -1796 0
-1772 -1797 0
-1772 -1798 0
-1772 -1799 0
-1773 -1774 0
-1773 -1775 0
-1773 -1776 0
-1773 -1777 0
-1773 -1778 0
-1773 -1779 0
-1773 -1780 0
-1773 -1781 0
-1773 -1782 0
-1773 -1783 0
-1773 -1784 0
-1773 -1785 0
-1773 -1786 0
-1773 -1787 0
-1773 -1788 0
-1773 -1789 0
-1773 -1790 0
-1773 -1791 0
-1773 -1792 0
-1773 -1793 0
-1773 -1794 0
-1773 -1795 0
-1773 -1796 0
-1773 -1797 0
-1773 -1798 0
-1773 -1799 0
-1774 -1775 0
-1774 -1776 0
-1774 -1777 0
-1774 -1778 0
-1774 -1779 0
-1774 -1780 0
-1774 -1781 0
-1774 -1782 0
-1774 -1783 0
-1774 -1784 0
-1774 -1785 0
-1774 -1786 0
-1774 -1787 0
-1774 -1788 0
-1774 -1789 0
-1774 -1790 0
-1774 -1791 0
-1774 -1792 0
-1774 -1793 0
-1774 -1794 0
-1774 -1795 0
-1774 -1796 0
-1774 -1797 0
-1774 -1798 0
-1774 -1799 0
-1775 -1776 0
-1775 -1777 0
-1775 -1778 0
-1775 -1779 0
-1775 -1780 0
-1775 -1781 0
-1775 -1782 0
-1775 -1783 0
-1775 -1784 0
-1775 -1785 0
-1775 -1786 0
-1775 -1787 0
-1775 -1788 0
-1775 -1789 0
-1775 -1790 0
-1775 -1791 0
-1775 -1792 0
-1775 -1793 0
-1775 -1794 0
-1775 -1795 0
-1775 -1796 0
-1775 -1797 0
-1775 -1798 0
-1775 -1799 0
-1776 -1777 0
-1776 -1778 0
-1776 -1779 0
-1776 -1780 0
-1776 -1781 0
-1776 -1782 0
-1776 -1783 0
-1776 -1784 0
-1776 -1785 0
-1776 -1786 0
-1776 -1787 0
-1776 -1788 0
-1776 -1789 0
-1776 -1790 0
-1776 -1791 0
-1776 -1792 0
-1776 -1793 0
-1776 -1794 0
-1776 -1795 0
-1776 -1796 0
-1776 -1797 0
-1776 -1798 0
-1776 -1799 0
-1777 -1778 0
-1777 -1779 0
-1777 -1780 0
-1777 -1781 0
-1777 -1782 0
-1777 -1783 0
-1777 -1784 0
-1777 -1785 0
-1777 -1786 0
-1777 -1787 0
-1777 -1788 0
-1777 -1789 0
-1777 -1790 0
-1777 -1791 0
-1777 -1792 0
-1777 -1793 0
-1777 -1794 0
-1777 -1795 0
-1777 -1796 0
-1777 -1797 0
-1777 -1798 0
-1777 -1799 0
-1778 -1779 0
-1778 -1780 0
-1778 -1781 0
-1778 -1782 0
-1778 -1783 0
-1778 -1784 0
-1778 -1785 0
-1778 -1786 0
-1778 -1787 0
-1778 -1788 0
-1778 -1789 0
-1778 -1790 0
-1778 -1791 0
-1778 -1792 0
-1778 -1793 0
-1778 -1794 0
-1778 -1795 0
-1778 -1796 0
-1778 -1797 0
-1778 -1798 0
-1778 -1799 0
-1779 -1780 0
-1779 -1781 0
-1779 -1782 0
-1779 -1783 0
-1779 -1784 0
-1779 -1785 0
-1779 -1786 0
-1779 -1787 0
-1779 -1788 0
-1779 -1789 0
-1779 -1790 0
-1779 -1791 0
-1779 -1792 0
-1779 -1793 0
-1779 -1794 0
-1779 -1795 0
-1779 -1796 0
-1779 -1797 0
-1779 -1798 0
-1779 -1799 0
-1780 -1781 0
-1780 -1782 0
-1780 -1783 0
-1780 -1784 0
-1780 -1785 0
-1780 -1786 0
-1780 -1787 0
-1780 -1788 0
-1780 -1789 0
-1780 -1790 0
-1780 -1791 0
-1780 -1792 0
-1780 -1793 0
-1780 -1794 0
-1780 -1795 0
-1780 -1796 0
-1780 -1797 0
-1780 -1798 0
-1780 -1799 0
-1781 -1782 0
-1781 -1783 0
-1781 -1784 0
-1781 -1785 0
-1781 -1786 0
-1781 -1787 0
-1781 -1788 0
-1781 -1789 0
-1781 -1790 0
-1781 -1791 0
-1781 -1792 0
-1781 -1793 0
-1781 -1794 0
-1781 -1795 0
-1781 -1796 0
-1781 -1797 0
-1781 -1798 0
-1781 -1799 0
-1782 -1783 0
-1782 -1784 0
-1782 -1785 0
-1782 -1786 0
-1782 -1787 0
-1782 -1788 0
-1782 -1789 0
-1782 -1790 0
-1782 -1791 0
-1782 -1792 0
-1782 -1793 0
-1782 -1794 0
-1782 -1795 0
-1782 -1796 0
-1782 -1797 0
-1782 -1798 0
-1782 -1799 0
-1783 -1784 0
-1783 -1785 0
-1783 -1786 0
-1783 -1787 0
-1783 -1788 0
-1783 -1789 0
-1783 -1790 0
-1783 -1791 0
-1783 -1792 0
-1783 -1793 0
-1783 -1794 0
-1783 -1795 0
-1783 -1796 0
-1783 -1797 0
-1783 -1798 0
-1783 -1799 0
-1784 -1785 0
-1784 -1786 0
-1784 -1787 0
-1784 -1788 0
-1784 -1789 0
-1784 -1790 0
-1784 -1791 0
-1784 -1792 0
-1784 -1793 0
-1784 -1794 0
-1784 -1795 0
-1784 -1796 0
-1784 -1797 0
-1784 -1798 0
-1784 -1799 0
-1785 -1786 0
-1785 -1787 0
-1785 -1788 0
-1785 -1789 0
-1785 -1790 0
-1785 -1791 0
-1785 -1792 0
-1785 -1793 0
-1785 -1794 0
-1785 -1795 0
-1785 -1796 0
-1785 -1797 0
-1785 -1798 0
-1785 -1799 0
-1786 -1787 0
-1786 -1788 0
-1786 -1789 0
-1786 -1790 0
-1786 -1791 0
-1786 -1792 0
-1786 -1793 0
-1786 -1794 0
-1786 -1795 0
-1786 -1796 0
-1786 -1797 0
-1786 -1798 0
-1786 -1799 0
-1787 -1788 0
-1787 -1789 0
-1787 -1790 0
-1787 -1791 0
-1787 -1792 0
-1787 -1793 0
-1787 -1794 0
-1787 -1795 0
-1787 -1796 0
-1787 -1797 0
-1787 -1798 0
-1787 -1799 0
-1788 -1789 0
-1788 -1790 0
-1788 -1791 0
-1788 -1792 0
-1788 -1793 0
-1788 -1794 0
-1788 -1795 0
-1788 -1796 0
-1788 -1797 0
-1788 -1798 0
-1788 -1799 0
-1789 -1790 0
-1789 -1791 0
-1789 -1792 0
-1789 -1793 0
-1789 -1794 0
-1789 -1795 0
-1789 -1796 0
-1789 -1797 0
-1789 -1798 0
-1789 -1799 0
-1790 -1791 0
-1790 -1792 0
-1790 -1793 0
-1790 -1794 0
-1790 -1795 0
-1790 -1796 0
-1790 -1797 0
-1790 -1798 0
-1790 -1799 0
-1791 -1792 0
-1791 -1793 0
-1791 -1794 0
-1791 -1795 0
-1791 -1796 0
-1791 -1797 0
-1791 -1798 0
-1791 -1799 0
-1792 -1793 0
-1792 -1794 0
-1792 -1795 0
-1792 -1796 0
-1792 -1797 0
-1792 -1798 0
-1792 -1799 0
-1793 -1794 0
-1793 -1795 0
-1793 -1796 0
-1793 -1797 0
-1793 -1798 0
-1793 -1799 0
-1794 -1795 0
-1794 -1796 0
-1794 -1797 0
-1794 -1798 0
-1794 -1799 0
-1795 -1796 0
-1795 -1797 0
-1795 -1798 0
-1795 -1799 0
-1796 -1797 0
-1796 -1798 0
-1796 -1799 0
-1797 -1798 0
-1797 -1799 0
-1798 -1799 0
1800 1801 1802 1803 1804 1805 1806 1807 1808 1809 1810 1811 1812 1813 1814 1815 1816 1817 1818 1819 1820 1821 1822 1823 1824 1825 1826 1827 1828 1829 1830 1831 1832 1833 1834 1835 1836 1837 1838 1839 1840 1841 1842 1843 1844 1845 1846 1847 1848 1849 1850 1851 1852 1853 1854 1855 1856 1857 1858 1859 1860 1861 1862 1863 1864 1865 1866 1867 1868 1869 1870 1871 1872 1873 1874 1875 1876 1877 1878 1879 1880 1881 1882 1883 0
-1800 -1801 0
-1800 -1802 0
-1800 -1803 0
-1800 -1804 0
-1800 -1805 0
-1800 -1806 0
-1800 -1807 0
-1800 -1808 0
-1800 -1809 0
-1800 -1810 0
-1800 -1811 0
-1800 -1812 0
-1800 -1813 0
-1800 -1814 0
-1800 -1815 0
-1800 -1816 0
-1800 -1817 0
-1800 -1818 0
-1800 -1819 0
-1800 -1820 0
-1800 -1821 0
-1800 -1822 0
-1800 -1823 0
-1800 -1824 0
-1800 -1825 0
-1800 -1826 0
-1800 -1827 0
-1800 -1828 0
-1800 -1829 0
-1800 -1830 0
-1800 -1831 0
-1800 -1832 0
-1800 -1833 0
-1800 -1834 0
-1800 -1835 0
-1800 -1836 0
-1800 -1837 0
-1800 -1838 0
-1800 -1839 0
-1800 -1840 0
-1800 -1841 0
-1800 -1842 0
-1800 -1843 0
-1800 -1844 0
-1800 -1845 0
-1800 -1846 0
-1800 -1847 0
-1800 -1848 0
-1800 -1849 0
-1800 -1850 0
-1800 -1851 0
-1800 -1852 0
-1800 -1853 0
-1800 -1854 0
-1800 -1855 0
-1800 -1856 0
-1800 -1857 0
-1800 -1858 0
-1800 -1859 0
-1800 -1860 0
-1800 -1861 0
-1800 -1862 0
-1800 -1863 0
-1800 -1864 0
-1800 -1865 0
-1800 -1866 0
-1800 -1867 0
-1800 -1868 0
-1800 -1869 0
-1800 -1870 0
-1800 -1871 0
-1800 -1872 0
-1800 -1873 0
-1800 -1874 0
-1800 -1875 0
-1800 -1876 0
-1800 -1877 0
-1800 -1878 0
-1800 -1879 0
-1800 -1880 0
-1800 -1881 0
-1800 -1882 0
-1800 -1883 0
-1801 -1802 0
-1801 -1803 0
-1801 -1804 0
-1801 -1805 0
-1801 -1806 0
-1801 -1807 0
-1801 -1808 0
-1801 -1809 0
-1801 -1810 0
-1801 -1811 0
-1801 -1812 0
-1801 -1813 0
-1801 -1814 0
-1801 -1815 0
-1801 -1816 0
-1801 -1817 0
-1801 -1818 0
-1801 -1819 0
-1801 -1820 0
-1801 -1821 0
-1801 -1822 0
-1801 -1823 0
-1801 -1824 0
-1801 -1825 0
-1801 -1826 0
-1801 -1827 0
-1801 -1828 0
-1801 -1829 0
-1801 -1830 0
-1801 -1831 0
-1801 -1832 0
-1801 -1833 0
-1801 -1834 0
-1801 -1835 0
-1801 -1836 0
-1801 -1837 0
-1801 -1838 0
-1801 -1839 0
-1801 -1840 0
-1801 -1841 0
-1801 -1842 0
-1801 -1843 0
-1801 -1844 0
-1801 -1845 0
-1801 -1846 0
-1801 -1847 0
-1801 -1848 0
-1801 -1849 0
-1801 -1850 0
-1801 -1851 0
-1801 -1852 0
-1801 -1853 0
-1801 -1854 0
-1801 -1855 0
-1801 -1856 0
-1801 -1857 0
-1801 -1858 0
-1801 -1859 0
-1801 -1860 0
-1801 -1861 0
-1801 -1862 0
-1801 -1863 0
-1801 -1864 0
-1801 -1865 0
-1801 -1866 0
-1801 -1867 0
-1801 -1868 0
-1801 -1869 0
-1801 -1870 0
-1801 -1871 0
-1801 -1872 0
-1801 -1873 0
-1801 -1874 0
-1801 -1875 0
-1801 -1876 0
-1801 -1877 0
-1801 -1878 0
-1801 -1879 0
-1801 -1880 0
-1801 -1881 0
-1801 -1882 0
-1801 -1883 0
-1802 -1803 0
-1802 -1804 0
-1802 -1805 0
-1802 -1806 0
-1802 -1807 0
-1802 -1808 0
-1802 -1809 0
-1802 -1810 0
-1802 -1811 0
-1802 -1812 0
-1802 -1813 0
-1802 -1814 0
-1802 -1815 0
-1802 -1816 0
-1802 -1817 0
-1802 -1818 0
-1802 -1819 0
-1802 -1820 0
-1802 -1821 0
-1802 -1822 0
-1802 -1823 0
-1802 -1824 0
-1802 -1825 0
-1802 -1826 0
-1802 -1827 0
-1802 -1828 0
-1802 -1829 0
-1802 -1830 0
-1802 -1831 0
-1802 -1832 0
-1802 -1833 0
-1802 -1834 0
-1802 -1835 0
-1802 -1836 0
-1802 -1837 0
-1802 -1838 0
-1802 -1839 0
-1802 -1840 0
-1802 -1841 0
-1802 -1842 0
-1802 -1843 0
-1802 -1844 0
-1802 -1845 0
-1802 -1846 0
-1802 -1847 0
-1802 -1848 0
-1802 -1849 0
-1802 -1850 0
-1802 -1851 0
-1802 -1852 0
-1802 -1853 0
-1802 -1854 0
-1802 -1855 0
-1802 -1856 0
-1802 -1857 0
-1802 -1858 0
-1802 -1859 0
-1802 -1860 0
-1802 -1861 0
-1802 -1862 0
-1802 -1863 0
-1802 -1864 0
-1802 -1865 0
-1802 -1866 0
-1802 -1867 0
-1802 -1868 0
-1802 -1869 0
-1802 -1870 0
-1802 -1871 0
-1802 -1872 0
-1802 -1873 0
-1802 -1874 0
-1802 -1875 0
-1802 -1876 0
-1802 -1877 0
-1802 -1878 0
-1802 -1879 0
-1802 -1880 0
-1802 -1881 0
-1802 -1882 0
-1802 -1883 0
-1803 -1804 0
-1803 -1805 0
-1803 -1806 0
-1803 -1807 0
-1803 -1808 0
-1803 -1809 0
-1803 -1810 0
-1803 -1811 0
-1803 -1812 0
-1803 -1813 0
-1803 -1814 0
-1803 -1815 0
-1803 -1816 0
-1803 -1817 0
-1803 -1818 0
-1803 -1819 0
-1803 -1820 0
-1803 -1821 0
-1803 -1822 0
-1803 -1823 0
-1803 -1824 0
-1803 -1825 0
-1803 -1826 0
-1803 -1827 0
-1803 -1828 0
-1803 -1829 0
-1803 -1830 0
-1803 -1831 0
-1803 -1832 0
-1803 -1833 0
-1803 -1834 0
-1803 -1835 0
-1803 -1836 0
-1803 -1837 0
-1803 -1838 0
-1803 -1839 0
-1803 -1840 0
-1803 -1841 0
-1803 -1842 0
-1803 -1843 0
-1803 -1844 0
-1803 -1845 0
-1803 -1846 0
-1803 -1847 0
-1803 -1848 0
-1803 -1849 0
-1803 -1850 0
-1803 -1851 0
-1803 -1852 0
-1803 -1853 0
-1803 -1854 0
-1803 -1855 0
-1803 -1856 0
-1803 -1857 0
-1803 -1858 0
-1803 -1859 0
-1803 -1860 0
-1803 -1861 0
-1803 -1862 0
-1803 -1863 0
-1803 -1864 0
-1803 -1865 0
-1803 -1866 0
-1803 -1867 0
-1803 -1868 0
-1803 -1869 0
-1803 -1870 0
-1803 -1871 0
-1803 -1872 0
-1803 -1873 0
-1803 -1874 0
-1803 -1875 0
-1803 -1876 0
-1803 -1877 0
-1803 -1878 0
-1803 -1879 0
-1803 -1880 0
-1803 -1881 0
-1803 -1882 0
-1803 -1883 0
-1804 -1805 0
-1804 -1806 0
-1804 -1807 0
-1804 -1808 0
-1804 -1809 0
-1804 -1810 0
-1804 -1811 0
-1804 -1812 0
-1804 -1813 0
-1804 -1814 0
-1804 -1815 0
-1804 -1816 0
-1804 -1817 0
-1804 -1818 0
-1804 -1819 0
-1804 -1820 0
-1804 -1821 0
-1804 -1822 0
-1804 -1823 0
-1804 -1824 0
-1804 -1825 0
-1804 -1826 0
-1804 -1827 0
-1804 -1828 0
-1804 -1829 0
-1804 -1830 0
-1804 -1831 0
-1804 -1832 0
-1804 -1833 0
-1804 -1834 0
-1804 -1835 0
-1804 -1836 0
-1804 -1837 0
-1804 -1838 0
-1804 -1839 0
-1804 -1840 0
-1804 -1841 0
-1804 -1842 0
-1804 -1843 0
-1804 -1844 0
-1804 -1845 0
-1804 -1846 0
-1804 -1847 0
-1804 -1848 0
-1804 -1849 0
-1804 -1850 0
-1804 -1851 0
-1804 -1852 0
-1804 -1853 0
-1804 -1854 0
-1804 -1855 0
-1804 -1856 0
-1804 -1857 0
-1804 -1858 0
-1804 -1859 0
-1804 -1860 0
-1804 -1861 0
-1804 -1862 0
-1804 -1863 0
-1804 -1864 0
-1804 -1865 0
-1804 -1866 0
-1804 -1867 0
-1804 -1868 0
-1804 -1869 0
-1804 -1870 0
-1804 -1871 0
-1804 -1872 0
-1804 -1873 0
-1804 -1874 0
-1804 -1875 0
-1804 -1876 0
-1804 -1877 0
-1804 -1878 0
-1804 -1879 0
-1804 -1880 0
-1804 -1881 0
-1804 -1882 0
-1804 -1883 0
-1805 -1806 0
-1805 -1807 0
-1805 -1808 0
-1805 -1809 0
-1805 -1810 0
-1805 -1811 0
-1805 -1812 0
-1805 -1813 0
-1805 -1814 0
-1805 -1815 0
-1805 -1816 0
-1805 -1817 0
-1805 -1818 0
-1805 -1819 0
-1805 -1820 0
-1805 -1821 0
-1805 -1822 0
-1805 -1823 0
-1805 -1824 0
-1805 -1825 0
-1805 -1826 0
-1805 -1827 0
-1805 -1828 0
-1805 -1829 0
-1805 -1830 0
-1805 -1831 0
-1805 -1832 0
-1805 -1833 0
-1805 -1834 0
-1805 -1835 0
-1805 -1836 0
-1805 -1837 0
-1805 -1838 0
-1805 -1839 0
-1805 -1840 0
-1805 -1841 0
-1805 -1842 0
-1805 -1843 0
-1805 -1844 0
-1805 -1845 0
-1805 -1846 0
-1805 -1847 0
-1805 -1848 0
-1805 -1849 0
-1805 -1850 0
-1805 -1851 0
-1805 -1852 0
-1805 -1853 0
-1805 -1854 0
-1805 -1855 0
-1805 -1856 0
-1805 -1857 0
-1805 -1858 0
-1805 -1859 0
-1805 -1860 0
-1805 -1861 0
-1805 -1862 0
-1805 -1863 0
-1805 -1864 0
-1805 -1865 0
-1805 -1866 0
-1805 -1867 0
-1805 -1868 0
-1805 -1869 0
-1805 -1870 0
-1805 -1871 0
-1805 -1872 0
-1805 -1873 0
-1805 -1874 0
-1805 -1875 0
-1805 -1876 0
-1805 -1877 0
-1805 -1878 0
-1805 -1879 0
-1805 -1880 0
-1805 -1881 0
-1805 -1882 0
-1805 -1883 0
-1806 -1807 0
-1806 -1808 0
-1806 -1809 0
-1806 -1810 0
-1806 -1811 0
-1806 -1812 0
-1806 -1813 0
-1806 -1814 0
-1806 -1815 0
-1806 -1816 0
-1806 -1817 0
-1806 -1818 0
-1806 -1819 0
-1806 -1820 0
-1806 -1821 0
-1806 -1822 0
-1806 -1823 0
-1806 -1824 0
-1806 -1825 0
-1806 -1826 0
-1806 -1827 0
-1806 -1828 0
-1806 -1829 0
-1806 -1830 0
-1806 -1831 0
-1806 -1832 0
-1806 -1833 0
-1806 -1834 0
-1806 -1835 0
-1806 -1836 0
-1806 -1837 0
-1806 -1838 0
-1806 -1839 0
-1806 -1840 0
-1806 -1841 0
-1806 -1842 0
-1806 -1843 0
-1806 -1844 0
-1806 -1845 0
-1806 -1846 0
-1806 -1847 0
-1806 -1848 0
-1806 -1849 0
-1806 -1850 0
-1806 -1851 0
-1806 -1852 0
-1806 -1853 0
-1806 -1854 0
-1806 -1855 0
-1806 -1856 0
-1806 -1857 0
-1806 -1858 0
-1806 -1859 0
-1806 -1860 0
-1806 -1861 0
-1806 -1862 0
-1806 -1863 0
-1806 -1864 0
-1806 -1865 0
-1806 -1866 0
-1806 -1867 0
-1806 -1868 0
-1806 -1869 0
-1806 -1870 0
-1806 -1871 0
-1806 -1872 0
-1806 -1873 0
-1806 -1874 0
-1806 -1875 0
-1806 -1876 0
-1806 -1877 0
-1806 -1878 0
-1806 -1879 0
-1806 -1880 0
-1806 -1881 0
-1806 -1882 0
-1806 -1883 0
-1807 -1808 0
-1807 -1809 0
-1807 -1810 0
-1807 -1811 0
-1807 -1812 0
-1807 -1813 0
-1807 -1814 0
-1807 -1815 0
-1807 -1816 0
-1807 -1817 0
-1807 -1818 0
-1807 -1819 0
-1807 -1820 0
-1807 -1821 0
-1807 -1822 0
-1807 -1823 0
-1807 -1824 0
-1807 -1825 0
-1807 -1826 0
-1807 -1827 0
-1807 -1828 0
-1807 -1829 0
-1807 -1830 0
-1807 -1831 0
-1807 -1832 0
-1807 -1833 0
-1807 -1834 0
-1807 -1835 0
-1807 -1836 0
-1807 -1837 0
-1807 -1838 0
-1807 -1839 0
-1807 -1840 0
-1807 -1841 0
-1807 -1842 0
-1807 -1843 0
-1807 -1844 0
-1807 -1845 0
-1807 -1846 0
-1807 -1847 0
-1807 -1848 0
-1807 -1849 0
-1807 -1850 0
-1807 -1851 0
-1807 -1852 0
-1807 -1853 0
-1807 -1854 0
-1807 -1855 0
-1807 -1856 0
-1807 -1857 0
-1807 -1858 0
-1807 -1859 0
-1807 -1860 0
-1807 -1861 0
-1807 -1862 0
-1807 -1863 0
-1807 -1864 0
-1807 -1865 0
-1807 -1866 0
-1807 -1867 0
-1807 -1868 0
-1807 -1869 0
-1807 -1870 0
-1807 -1871 0
-1807 -1872 0
-1807 -1873 0
-1807 -1874 0
-1807 -1875 0
-1807 -1876 0
-1807 -1877 0
-1807 -1878 0
-1807 -1879 0
-1807 -1880 0
-1807 -1881 0
-1807 -1882 0
-1807 -1883 0
-1808 -1809 0
-1808 -1810 0
-1808 -1811 0
-1808 -1812 0
-1808 -1813 0
-1808 -1814 0
-1808 -1815 0
-1808 -1816 0
-1808 -1817 0
-1808 -1818 0
-1808 -1819 0
-1808 -1820 0
-1808 -1821 0
-1808 -1822 0
-1808 -1823 0
-1808 -1824 0
-1808 -1825 0
-1808 -1826 0
-1808 -1827 0
-1808 -1828 0
-1808 -1829 0
-1808 -1830 0
-1808 -1831 0
-1808 -1832 0
-1808 -1833 0
-1808 -1834 0
-1808 -1835 0
-1808 -1836 0
-1808 -1837 0
-1808 -1838 0
-1808 -1839 0
-1808 -1840 0
-1808 -1841 0
-1808 -1842 0
-1808 -1843 0
-1808 -1844 0
-1808 -1845 0
-1808 -1846 0
-1808 -1847 0
-1808 -1848 0
-1808 -1849 0
-1808 -1850 0
-1808 -1851 0
-1808 -1852 0
-1808 -1853 0
-1808 -1854 0
-1808 -1855 0
-1808 -1856 0
-1808 -1857 0
-1808 -1858 0
-1808 -1859 0
-1808 -1860 0
-1808 -1861 0
-1808 -1862 0
-1808 -1863 0
-1808 -1864 0
-1808 -1865 0
-1808 -1866 0
-1808 -1867 0
-1808 -1868 0
-1808 -1869 0
-1808 -1870 0
-1808 -1871 0
-1808 -1872 0
-1808 -1873 0
-1808 -1874 0
-1808 -1875 0
-1808 -1876 0
-1808 -1877 0
-1808 -1878 0
-1808 -1879 0
-1808 -1880 0
-1808 -1881 0
-1808 -1882 0
-1808 -1883 0
-1809 -1810 0
-1809 -1811 0
-1809 -1812 0
-1809 -1813 0
-1809 -1814 0
-1809 -1815 0
-1809 -1816 0
-1809 -1817 0
-1809 -1818 0
-1809 -1819 0
-1809 -1820 0
-1809 -1821 0
-1809 -1822 0
-1809 -1823 0
-1809 -1824 0
-1809 -1825 0
-1809 -1826 0
-1809 -1827 0
-1809 -1828 0
-1809 -1829 0
-1809 -1830 0
-1809 -1831 0
-1809 -1832 0
-1809 -1833 0
-1809 -1834 0
-1809 -1835 0
-1809 -1836 0
-1809 -1837 0
-1809 -1838 0
-1809 -1839 0
-1809 -1840 0
-1809 -1841 0
-1809 -1842 0
-1809 -1843 0
-1809 -1844 0
-1809 -1845 0
-1809 -1846 0
-1809 -1847 0
-1809 -1848 0
-1809 -1849 0
-1809 -1850 0
-1809 -1851 0
-1809 -1852 0
-1809 -1853 0
-1809 -1854 0
-1809 -1855 0
-1809 -1856 0
-1809 -1857 0
-1809 -1858 0
-1809 -1859 0
-1809 -1860 0
-1809 -1861 0
-1809 -1862 0
-1809 -1863 0
-1809 -1864 0
-1809 -1865 0
-1809 -1866 0
-1809 -1867 0
-1809 -1868 0
-1809 -1869 0
-1809 -1870 0
-1809 -1871 0
-1809 -1872 0
-1809 -1873 0
-1809 -1874 0
-1809 -1875 0
-1809 -1876 0
-1809 -1877 0
-1809 -1878 0
-1809 -1879 0
-1809 -1880 0
-1809 -1881 0
-1809 -1882 0
-1809 -1883 0
-1810 -1811 0
-1810 -1812 0
-1810 -1813 0
-1810 -1814 0
-1810 -1815 0
-1810 -1816 0
-1810 -1817 0
-1810 -1818 0
-1810 -1819 0
-1810 -1820 0
-1810 -1821 0
-1810 -1822 0
-1810 -1823 0
-1810 -1824 0
-1810 -1825 0
-1810 -1826 0
-1810 -1827 0
-1810 -1828 0
-1810 -1829 0
-1810 -1830 0
-1810 -1831 0
-1810 -1832 0
-1810 -1833 0
-1810 -1834 0
-1810 -1835 0
-1810 -1836 0
-1810 -1837 0
-1810 -1838 0
-1810 -1839 0
-1810 -1840 0
-1810 -1841 0
-1810 -1842 0
-1810 -1843 0
-1810 -1844 0
-1810 -1845 0
-1810 -1846 0
-1810 -1847 0
-1810 -1848 0
-1810 -1849 0
-1810 -1850 0
-1810 -1851 0
-1810 -1852 0
-1810 -1853 0
-1810 -1854 0
-1810 -1855 0
-1810 -1856 0
-1810 -1857 0
-1810 -1858 0
-1810 -1859 0
-1810 -1860 0
-1810 -1861 0
-1810 -1862 0
-1810 -1863 0
-1810 -1864 0
-1810 -1865 0
-1810 -1866 0
-1810 -1867 0
-1810 -1868 0
-1810 -1869 0
-1810 -1870 0
-1810 -1871 0
-1810 -1872 0
-1810 -1873 0
-1810 -1874 0
-1810 -1875 0
-1810 -1876 0
-1810 -1877 0
-1810 -1878 0
-1810 -1879 0
-1810 -1880 0
-1810 -1881 0
-1810 -1882 0
-1810 -1883 0
-1811 -1812 0
-1811 -1813 0
-1811 -1814 0
-1811 -1815 0
-1811 -1816 0
-1811 -1817 0
-1811 -1818 0
-1811 -1819 0
-1811 -1820 0
-1811 -1821 0
-1811 -1822 0
-1811 -1823 0
-1811 -1824 0
-1811 -1825 0
-1811 -1826 0
-1811 -1827 0
-1811 -1828 0
-1811 -1829 0
-1811 -1830 0
-1811 -1831 0
-1811 -1832 0
-1811 -1833 0
-1811 -1834 0
-1811 -1835 0
-1811 -1836 0
-1811 -1837 0
-1811 -1838 0
-1811 -1839 0
-1811 -1840 0
-1811 -1841 0
-1811 -1842 0
-1811 -1843 0
-1811 -1844 0
-1811 -1845 0
-1811 -1846 0
-1811 -1847 0
-1811 -1848 0
-1811 -1849 0
-1811 -1850 0
-1811 -1851 0
-1811 -1852 0
-1811 -1853 0
-1811 -1854 0
-1811 -1855 0
-1811 -1856 0
-1811 -1857 0
-1811 -1858 0
-1811 -1859 0
-1811 -1860 0
-1811 -1861 0
-1811 -1862 0
-1811 -1863 0
-1811 -1864 0
-1811 -1865 0
-1811 -1866 0
-1811 -1867 0
-1811 -1868 0
-1811 -1869 0
-1811 -1870 0
-1811 -1871 0
-1811 -1872 0
-1811 -1873 0
-1811 -1874 0
-1811 -1875 0
-1811 -1876 0
-1811 -1877 0
-1811 -1878 0
-1811 -1879 0
-1811 -1880 0
-1811 -1881 0
-1811 -1882 0
-1811 -1883 0
-1812 -1813 0
-1812 -1814 0
-1812 -1815 0
-1812 -1816 0
-1812 -1817 0
-1812 -1818 0
-1812 -1819 0
-1812 -1820 0
-1812 -1821 0
-1812 -1822 0
-1812 -1823 0
-1812 -1824 0
-1812 -1825 0
-1812 -1826 0
-1812 -1827 0
-1812 -1828 0
-1812 -1829 0
-1812 -1830 0
-1812 -1831 0
-1812 -1832 0
-1812 -1833 0
-1812 -1834 0
-1812 -1835 0
-1812 -1836 0
-1812 -1837 0
-1812 -1838 0
-1812 -1839 0
-1812 -1840 0
-1812 -1841 0
-1812 -1842 0
-1812 -1843 0
-1812 -1844 0
-1812 -1845 0
-1812 -1846 0
-1812 -1847 0
-1812 -1848 0
-1812 -1849 0
-1812 -1850 0
-1812 -1851 0
-1812 -1852 0
-1812 -1853 0
-1812 -1854 0
-1812 -1855 0
-1812 -1856 0
-1812 -1857 0
-1812 -1858 0
-1812 -1859 0
-1812 -1860 0
-1812 -1861 0
-1812 -1862 0
-1812 -1863 0
-1812 -1864 0
-1812 -1865 0
-1812 -1866 0
-1812 -1867 0
-1812 -1868 0
-1812 -1869 0
-1812 -1870 0
-1812 -1871 0
-1812 -1872 0
-1812 -1873 0
-1812 -1874 0
-1812 -1875 0
-1812 -1876 0
-1812 -1877 0
-1812 -1878 0
-1812 -1879 0
-1812 -1880 0
-1812 -1881 0
-1812 -1882 0
-1812 -1883 0
-1813 -1814 0
-1813 -1815 0
-1813 -1816 0
-1813 -1817 0
-1813 -1818 0
-1813 -1819 0
-1813 -1820 0
-1813 -1821 0
-1813 -1822 0
-1813 -1823 0
-1813 -1824 0
-1813 -1825 0
-1813 -1826 0
-1813 -1827 0
-1813 -1828 0
-1813 -1829 0
-1813 -1830 0
-1813 -1831 0
-1813 -1832 0
-1813 -1833 0
-1813 -1834 0
-1813 -1835 0
-1813 -1836 0
-1813 -1837 0
-1813 -1838 0
-1813 -1839 0
-1813 -1840 0
-1813 -1841 0
-1813 -1842 0
-1813 -1843 0
-1813 -1844 0
-1813 -1845 0
-1813 -1846 0
-1813 -1847 0
-1813 -1848 0
-1813 -1849 0
-1813 -1850 0
-1813 -1851 0
-1813 -1852 0
-1813 -1853 0
-1813 -1854 0
-1813 -1855 0
-1813 -1856 0
-1813 -1857 0
-1813 -1858 0
-1813 -1859 0
-1813 -1860 0
-1813 -1861 0
-1813 -1862 0
-1813 -1863 0
-1813 -1864 0
-1813 -1865 0
-1813 -1866 0
-1813 -1867 0
-1813 -1868 0
-1813 -1869 0
-1813 -1870 0
-1813 -1871 0
-1813 -1872 0
-1813 -1873 0
-1813 -1874 0
-1813 -1875 0
-1813 -1876 0
-1813 -1877 0
-1813 -1878 0
-1813 -1879 0
-1813 -1880 0
-1813 -1881 0
-1813 -1882 0
-1813 -1883 0
-1814 -1815 0
-1814 -1816 0
-1814 -1817 0
-1814 -1818 0
-1814 -1819 0
-1814 -1820 0
-1814 -1821 0
-1814 -1822 0
-1814 -1823 0
-1814 -1824 0
-1814 -1825 0
-1814 -1826 0
-1814 -1827 0
-1814 -1828 0
-1814 -1829 0
-1814 -1830 0
-1814 -1831 0
-1814 -1832 0
-1814 -1833 0
-1814 -1834 0
-1814 -1835 0
-1814 -1836 0
-1814 -1837 0
-1814 -1838 0
-1814 -1839 0
-1814 -1840 0
-1814 -1841 0
-1814 -1842 0
-1814 -1843 0
-1814 -1844 0
-1814 -1845 0
-1814 -1846 0
-1814 -1847 0
-1814 -1848 0
-1814 -1849 0
-1814 -1850 0
-1814 -1851 0
-1814 -1852 0
-1814 -1853 0
-1814 -1854 0
-1814 -1855 0
-1814 -1856 0
-1814 -1857 0
-1814 -1858 0
-1814 -1859 0
-1814 -1860 0
-1814 -1861 0
-1814 -1862 0
-1814 -1863 0
-1814 -1864 0
-1814 -1865 0
-1814 -1866 0
-1814 -1867 0
-1814 -1868 0
-1814 -1869 0
-1814 -1870 0
-1814 -1871 0
-1814 -1872 0
-1814 -1873 0
-1814 -1874 0
-1814 -1875 0
-1814 -1876 0
-1814 -1877 0
-1814 -1878 0
-1814 -1879 0
-1814 -1880 0
-1814 -1881 0
-1814 -1882 0
-1814 -1883 0
-1815 -1816 0
-1815 -1817 0
-1815 -1818 0
-1815 -1819 0
-1815 -1820 0
-1815 -1821 0
-1815 -1822 0
-1815 -1823 0
-1815 -1824 0
-1815 -1825 0
-1815 -1826 0
-1815 -1827 0
-1815 -1828 0
-1815 -1829 0
-1815 -1830 0
-1815 -1831 0
-1815 -1832 0
-1815 -1833 0
-1815 -1834 0
-1815 -1835 0
-1815 -1836 0
-1815 -1837 0
-1815 -1838 0
-1815 -1839 0
-1815 -1840 0
-1815 -1841 0
-1815 -1842 0
-1815 -1843 0
-1815 -1844 0
-1815 -1845 0
-1815 -1846 0
-1815 -1847 0
-1815 -1848 0
-1815 -1849 0
-1815 -1850 0
-1815 -1851 0
-1815 -1852 0
-1815 -1853 0
-1815 -1854 0
-1815 -1855 0
-1815 -1856 0
-1815 -1857 0
-1815 -1858 0
-1815 -1859 0
-1815 -1860 0
-1815 -1861 0
-1815 -1862 0
-1815 -1863 0
-1815 -1864 0
-1815 -1865 0
-1815 -1866 0
-1815 -1867 0
-1815 -1868 0
-1815 -1869 0
-1815 -1870 0
-1815 -1871 0
-1815 -1872 0
-1815 -1873 0
-1815 -1874 0
-1815 -1875 0
-1815 -1876 0
-1815 -1877 0
-1815 -1878 0
-1815 -1879 0
-1815 -1880 0
-1815 -1881 0
-1815 -1882 0
-1815 -1883 0
-1816 -1817 0
-1816 -1818 0
-1816 -1819 0
-1816 -1820 0
-1816 -1821 0
-1816 -1822 0
-1816 -1823 0
-1816 -1824 0
-1816 -1825 0
-1816 -1826 0
-1816 -1827 0
-1816 -1828 0
-1816 -1829 0
-1816 -1830 0
-1816 -1831 0
-1816 -1832 0
-1816 -1833 0
-1816 -1834 0
-1816 -1835 0
-1816 -1836 0
-1816 -1837 0
-1816 -1838 0
-1816 -1839 0
-1816 -1840 0
-1816 -1841 0
-1816 -1842 0
-1816 -1843 0
-1816 -1844 0
-1816 -1845 0
-1816 -1846 0
-1816 -1847 0
-1816 -1848 0
-1816 -1849 0
-1816 -1850 0
-1816 -1851 0
-1816 -1852 0
-1816 -1853 0
-1816 -1854 0
-1816 -1855 0
-1816 -1856 0
-1816 -1857 0
-1816 -1858 0
-1816 -1859 0
-1816 -1860 0
-1816 -1861 0
-1816 -1862 0
-1816 -1863 0
-1816 -1864 0
-1816 -1865 0
-1816 -1866 0
-1816 -1867 0
-1816 -1868 0
-1816 -1869 0
-1816 -1870 0
-1816 -1871 0
-1816 -1872 0
-1816 -1873 0
-1816 -1874 0
-1816 -1875 0
-1816 -1876 0
-1816 -1877 0
-1816 -1878 0
-1816 -1879 0
-1816 -1880 0
-1816 -1881 0
-1816 -1882 0
-1816 -1883 0
-1817 -1818 0
-1817 -1819 0
-1817 -1820 0
-1817 -1821 0
-1817 -1822 0
-1817 -1823 0
-1817 -1824 0
-1817 -1825 0
-1817 -1826 0
-1817 -1827 0
-1817 -1828 0
-1817 -1829 0
-1817 -1830 0
-1817 -1831 0
-1817 -1832 0
-1817 -1833 0
-1817 -1834 0
-1817 -1835 0
-1817 -1836 0
-1817 -1837 0
-1817 -1838 0
-1817 -1839 0
-1817 -1840 0
-1817 -1841 0
-1817 -1842 0
-1817 -1843 0
-1817 -1844 0
-1817 -1845 0
-1817 -1846 0
-1817 -1847 0
-1817 -1848 0
-1817 -1849 0
-1817 -1850 0
-1817 -1851 0
-1817 -1852 0
-1817 -1853 0
-1817 -1854 0
-1817 -1855 0
-1817 -1856 0
-1817 -1857 0
-1817 -1858 0
-1817 -1859 0
-1817 -1860 0
-1817 -1861 0
-1817 -1862 0
-1817 -1863 0
-1817 -1864 0
-1817 -1865 0
-1817 -1866 0
-1817 -1867 0
-1817 -1868 0
-1817 -1869 0
-1817 -1870 0
-1817 -1871 0
-1817 -1872 0
-1817 -1873 0
-1817 -1874 0
-1817 -1875 0
-1817 -1876 0
-1817 -1877 0
-1817 -1878 0
-1817 -1879 0
-1817 -1880 0
-1817 -1881 0
-1817 -1882 0
-1817 -1883 0
-1818 -1819 0
-1818 -1820 0
-1818 -1821 0
-1818 -1822 0
-1818 -1823 0
-1818 -1824 0
-1818 -1825 0
-1818 -1826 0
-1818 -1827 0
-1818 -1828 0
-1818 -1829 0
-1818 -1830 0
-1818 -1831 0
-1818 -1832 0
-1818 -1833 0
-1818 -1834 0
-1818 -1835 0
-1818 -1836 0
-1818 -1837 0
-1818 -1838 0
-1818 -1839 0
-1818 -1840 0
-1818 -1841 0
-1818 -1842 0
-1818 -1843 0
-1818 -1844 0
-1818 -1845 0
-1818 -1846 0
-1818 -1847 0
-1818 -1848 0
-1818 -1849 0
-1818 -1850 0
-1818 -1851 0
-1818 -1852 0
-1818 -1853 0
-1818 -1854 0
-1818 -1855 0
-1818 -1856 0
-1818 -1857 0
-1818 -1858 0
-1818 -1859 0
-1818 -1860 0
-1818 -1861 0
-1818 -1862 0
-1818 -1863 0
-1818 -1864 0
-1818 -1865 0
-1818 -1866 0
-1818 -1867 0
-1818 -1868 0
-1818 -1869 0
-1818 -1870 0
-1818 -1871 0
-1818 -1872 0
-1818 -1873 0
-1818 -1874 0
-1818 -1875 0
-1818 -1876 0
-1818 -1877 0
-1818 -1878 0
-1818 -1879 0
-1818 -1880 0
-1818 -1881 0
-1818 -1882 0
-1818 -1883 0
-1819 -1820 0
-1819 -1821 0
-1819 -1822 0
-1819 -1823 0
-1819 -1824 0
-1819 -1825 0
-1819 -1826 0
-1819 -1827 0
-1819 -1828 0
-1819 -1829 0
-1819 -1830 0
-1819 -1831 0
-1819 -1832 0
-1819 -1833 0
-1819 -1834 0
-1819 -1835 0
-1819 -1836 0
-1819 -1837 0
-1819 -1838 0
-1819 -1839 0
-1819 -1840 0
-1819 -1841 0
-1819 -1842 0
-1819 -1843 0
-1819 -1844 0
-1819 -1845 0
-1819 -1846 0
-1819 -1847 0
-1819 -1848 0
-1819 -1849 0
-1819 -1850 0
-1819 -1851 0
-1819 -1852 0
-1819 -1853 0
-1819 -1854 0
-1819 -1855 0
-1819 -1856 0
-1819 -1857 0
-1819 -1858 0
-1819 -1859 0
-1819 -1860 0
-1819 -1861 0
-1819 -1862 0
-1819 -1863 0
-1819 -1864 0
-1819 -1865 0
-1819 -1866 0
-1819 -1867 0
-1819 -1868 0
-1819 -1869 0
-1819 -1870 0
-1819 -1871 0
-1819 -1872 0
-1819 -1873 0
-1819 -1874 0
-1819 -1875 0
-1819 -1876 0
-1819 -1877 0
-1819 -1878 0
-1819 -1879 0
-1819 -1880 0
-1819 -1881 0
-1819 -1882 0
-1819 -1883 0
-1820 -1821 0
-1820 -1822 0
-1820 -1823 0
-1820 -1824 0
-1820 -1825 0
-1820 -1826 0
-1820 -1827 0
-1820 -1828 0
-1820 -1829 0
-1820 -1830 0
-1820 -1831 0
-1820 -1832 0
-1820 -1833 0
-1820 -1834 0
-1820 -1835 0
-1820 -1836 0
-1820 -1837 0
-1820 -1838 0
-1820 -1839 0
-1820 -1840 0
-1820 -1841 0
-1820 -1842 0
-1820 -1843 0
-1820 -1844 0
-1820 -1845 0
-1820 -1846 0
-1820 -1847 0
-1820 -1848 0
-1820 -1849 0
-1820 -1850 0
-1820 -1851 0
-1820 -1852 0
-1820 -1853 0
-1820 -1854 0
-1820 -1855 0
-1820 -1856 0
-1820 -1857 0
-1820 -1858 0
-1820 -1859 0
-1820 -1860 0
-1820 -1861 0
-1820 -1862 0
-1820 -1863 0
-1820 -1864 0
-1820 -1865 0
-1820 -1866 0
-1820 -1867 0
-1820 -1868 0
-1820 -1869 0
-1820 -1870 0
-1820 -1871 0
-1820 -1872 0
-1820 -1873 0
-1820 -1874 0
-1820 -1875 0
-1820 -1876 0
-1820 -1877 0
-1820 -1878 0
-1820 -1879 0
-1820 -1880 0
-1820 -1881 0
-1820 -1882 0
-1820 -1883 0
-1821 -1822 0
-1821 -1823 0
-1821 -1824 0
-1821 -1825 0
-1821 -1826 0
-1821 -1827 0
-1821 -1828 0
-1821 -1829 0
-1821 -1830 0
-1821 -1831 0
-1821 -1832 0
-1821 -1833 0
-1821 -1834 0
-1821 -1835 0
-1821 -1836 0
-1821 -1837 0
-1821 -1838 0
-1821 -1839 0
-1821 -1840 0
-1821 -1841 0
-1821 -1842 0
-1821 -1843 0
-1821 -1844 0
-1821 -1845 0
-1821 -1846 0
-1821 -1847 0
-1821 -1848 0
-1821 -1849 0
-1821 -1850 0
-1821 -1851 0
-1821 -1852 0
-1821 -1853 0
-1821 -1854 0
-1821 -1855 0
-1821 -1856 0
-1821 -1857 0
-1821 -1858 0
-1821 -1859 0
-1821 -1860 0
-1821 -1861 0
-1821 -1862 0
-1821 -1863 0
-1821 -1864 0
-1821 -1865 0
-1821 -1866 0
-1821 -1867 0
-1821 -1868 0
-1821 -1869 0
-1821 -1870 0
-1821 -1871 0
-1821 -1872 0
-1821 -1873 0
-1821 -1874 0
-1821 -1875 0
-1821 -1876 0
-1821 -1877 0
-1821 -1878 0
-1821 -1879 0
-1821 -1880 0
-1821 -1881 0
-1821 -1882 0
-1821 -1883 0
-1822 -1823 0
-1822 -1824 0
-1822 -1825 0
-1822 -1826 0
-1822 -1827 0
-1822 -1828 0
-1822 -1829 0
-1822 -1830 0
-1822 -1831 0
-1822 -1832 0
-1822 -1833 0
-1822 -1834 0
-1822 -1835 0
-1822 -1836 0
-1822 -1837 0
-1822 -1838 0
-1822 -1839 0
-1822 -1840 0
-1822 -1841 0
-1822 -1842 0
-1822 -1843 0
-1822 -1844 0
-1822 -1845 0
-1822 -1846 0
-1822 -1847 0
-1822 -1848 0
-1822 -1849 0
-1822 -1850 0
-1822 -1851 0
-1822 -1852 0
-1822 -1853 0
-1822 -1854 0
-1822 -1855 0
-1822 -1856 0
-1822 -1857 0
-1822 -1858 0
-1822 -1859 0
-1822 -1860 0
-1822 -1861 0
-1822 -1862 0
-1822 -1863 0
-1822 -1864 0
-1822 -1865 0
-1822 -1866 0
-1822 -1867 0
-1822 -1868 0
-1822 -1869 0
-1822 -1870 0
-1822 -1871 0
-1822 -1872 0
-1822 -1873 0
-1822 -1874 0
-1822 -1875 0
-1822 -1876 0
-1822 -1877 0
-1822 -1878 0
-1822 -1879 0
-1822 -1880 0
-1822 -1881 0
-1822 -1882 0
-1822 -1883 0
-1823 -1824 0
-1823 -1825 0
-1823 -1826 0
-1823 -1827 0
-1823 -1828 0
-1823 -1829 0
-1823 -1830 0
-1823 -1831 0
-1823 -1832 0
-1823 -1833 0
-1823 -1834 0
-1823 -1835 0
-1823 -1836 0
-1823 -1837 0
-1823 -1838 0
-1823 -1839 0
-1823 -1840 0
-1823 -1841 0
-1823 -1842 0
-1823 -1843 0
-1823 -1844 0
-1823 -1845 0
-1823 -1846 0
-1823 -1847 0
-1823 -1848 0
-1823 -1849 0
-1823 -1850 0
-1823 -1851 0
-1823 -1852 0
-1823 -1853 0
-1823 -1854 0
-1823 -1855 0
-1823 -1856 0
-1823 -1857 0
-1823 -1858 0
-1823 -1859 0
-1823 -1860 0
-1823 -1861 0
-1823 -1862 0
-1823 -1863 0
-1823 -1864 0
-1823 -1865 0
-1823 -1866 0
-1823 -1867 0
-1823 -1868 0
-1823 -1869 0
-1823 -1870 0
-1823 -1871 0
-1823 -1872 0
-1823 -1873 0
-1823 -1874 0
-1823 -1875 0
-1823 -1876 0
-1823 -1877 0
-1823 -1878 0
-1823 -1879 0
-1823 -1880 0
-1823 -1881 0
-1823 -1882 0
-1823 -1883 0
-1824 -1825 0
-1824 -1826 0
-1824 -1827 0
-1824 -1828 0
-1824 -1829 0
-1824 -1830 0
-1824 -1831 0
-1824 -1832 0
-1824 -1833 0
-1824 -1834 0
-1824 -1835 0
-1824 -1836 0
-1824 -1837 0
-1824 -1838 0
-1824 -1839 0
-1824 -1840 0
-1824 -1841 0
-1824 -1842 0
-1824 -1843 0
-1824 -1844 0
-1824 -1845 0
-1824 -1846 0
-1824 -1847 0
-1824 -1848 0
-1824 -1849 0
-1824 -1850 0
-1824 -1851 0
-1824 -1852 0
-1824 -1853 0
-1824 -1854 0
-1824 -1855 0
-1824 -1856 0
-1824 -1857 0
-1824 -1858 0
-1824 -1859 0
-1824 -1860 0
-1824 -1861 0
-1824 -1862 0
-1824 -1863 0
-1824 -1864 0
-1824 -1865 0
-1824 -1866 0
-1824 -1867 0
-1824 -1868 0
-1824 -1869 0
-1824 -1870 0
-1824 -1871 0
-1824 -1872 0
-1824 -1873 0
-1824 -1874 0
-1824 -1875 0
-1824 -1876 0
-1824 -1877 0
-1824 -1878 0
-1824 -1879 0
-1824 -1880 0
-1824 -1881 0
-1824 -1882 0
-1824 -1883 0
-1825 -1826 0
-1825 -1827 0
-1825 -1828 0
-1825 -1829 0
-1825 -1830 0
-1825 -1831 0
-1825 -1832 0
-1825 -1833 0
-1825 -1834 0
-1825 -1835 0
-1825 -1836 0
-1825 -1837 0
-1825 -1838 0
-1825 -1839 0
-1825 -1840 0
-1825 -1841 0
-1825 -1842 0
-1825 -1843 0
-1825 -1844 0
-1825 -1845 0
-1825 -1846 0
-1825 -1847 0
-1825 -1848 0
-1825 -1849 0
-1825 -1850 0
-1825 -1851 0
-1825 -1852 0
-1825 -1853 0
-1825 -1854 0
-1825 -1855 0
-1825 -1856 0
-1825 -1857 0
-1825 -1858 0
-1825 -1859 0
-1825 -1860 0
-1825 -1861 0
-1825 -1862 0
-1825 -1863 0
-1825 -1864 0
-1825 -1865 0
-1825 -1866 0
-1825 -1867 0
-1825 -1868 0
-1825 -1869 0
-1825 -1870 0
-1825 -1871 0
-1825 -1872 0
-1825 -1873 0
-1825 -1874 0
-1825 -1875 0
-1825 -1876 0
-1825 -1877 0
-1825 -1878 0
-1825 -1879 0
-1825 -1880 0
-1825 -1881 0
-1825 -1882 0
-1825 -1883 0
-1826 -1827 0
-1826 -1828 0
-1826 -1829 0
-1826 -1830 0
-1826 -1831 0
-1826 -1832 0
-1826 -1833 0
-1826 -1834 0
-1826 -1835 0
-1826 -1836 0
-1826 -1837 0
-1826 -1838 0
-1826 -1839 0
-1826 -1840 0
-1826 -1841 0
-1826 -1842 0
-1826 -1843 0
-1826 -1844 0
-1826 -1845 0
-1826 -1846 0
-1826 -1847 0
-1826 -1848 0
-1826 -1849 0
-1826 -1850 0
-1826 -1851 0
-1826 -1852 0
-1826 -1853 0
-1826 -1854 0
-1826 -1855 0
-1826 -1856 0
-1826 -1857 0
-1826 -1858 0
-1826 -1859 0
-1826 -1860 0
-1826 -1861 0
-1826 -1862 0
-1826 -1863 0
-1826 -1864 0
-1826 -1865 0
-1826 -1866 0
-1826 -1867 0
-1826 -1868 0
-1826 -1869 0
-1826 -1870 0
-1826 -1871 0
-1826 -1872 0
-1826 -1873 0
-1826 -1874 0
-1826 -1875 0
-1826 -1876 0
-1826 -1877 0
-1826 -1878 0
-1826 -1879 0
-1826 -1880 0
-1826 -1881 0
-1826 -1882 0
-1826 -1883 0
-1827 -1828 0
-1827 -1829 0
-1827 -1830 0
-1827 -1831 0
-1827 -1832 0
-1827 -1833 0
-1827 -1834 0
-1827 -1835 0
-1827 -1836 0
-1827 -1837 0
-1827 -1838 0
-1827 -1839 0
-1827 -1840 0
-1827 -1841 0
-1827 -1842 0
-1827 -1843 0
-1827 -1844 0
-1827 -1845 0
-1827 -1846 0
-1827 -1847 0
-1827 -1848 0
-1827 -1849 0
-1827 -1850 0
-1827 -1851 0
-1827 -1852 0
-1827 -1853 0
-1827 -1854 0
-1827 -1855 0
-1827 -1856 0
-1827 -1857 0
-1827 -1858 0
-1827 -1859 0
-1827 -1860 0
-1827 -1861 0
-1827 -1862 0
-1827 -1863 0
-1827 -1864 0
-1827 -1865 0
-1827 -1866 0
-1827 -1867 0
-1827 -1868 0
-1827 -1869 0
-1827 -1870 0
-1827 -1871 0
-1827 -1872 0
-1827 -1873 0
-1827 -1874 0
-1827 -1875 0
-1827 -1876 0
-1827 -1877 0
-1827 -1878 0
-1827 -1879 0
-1827 -1880 0
-1827 -1881 0
-1827 -1882 0
-1827 -1883 0
-1828 -1829 0
-1828 -1830 0
-1828 -1831 0
-1828 -1832 0
-1828 -1833 0
-1828 -1834 0
-1828 -1835 0
-1828 -1836 0
-1828 -1837 0
-1828 -1838 0
-1828 -1839 0
-1828 -1840 0
-1828 -1841 0
-1828 -1842 0
-1828 -1843 0
-1828 -1844 0
-1828 -1845 0
-1828 -1846 0
-1828 -1847 0
-1828 -1848 0
-1828 -1849 0
-1828 -1850 0
-1828 -1851 0
-1828 -1852 0
-1828 -1853 0
-1828 -1854 0
-1828 -1855 0
-1828 -1856 0
-1828 -1857 0
-1828 -1858 0
-1828 -1859 0
-1828 -1860 0
-1828 -1861 0
-1828 -1862 0
-1828 -1863 0
-1828 -1864 0
-1828 -1865 0
-1828 -1866 0
-1828 -1867 0
-1828 -1868 0
-1828 -1869 0
-1828 -1870 0
-1828 -1871 0
-1828 -1872 0
-1828 -1873 0
-1828 -1874 0
-1828 -1875 0
-1828 -1876 0
-1828 -1877 0
-1828 -1878 0
-1828 -1879 0
-1828 -1880 0
-1828 -1881 0
-1828 -1882 0
-1828 -1883 0
-1829 -1830 0
-1829 -1831 0
-1829 -1832 0
-1829 -1833 0
-1829 -1834 0
-1829 -1835 0
-1829 -1836 0
-1829 -1837 0
-1829 -1838 0
-1829 -1839 0
-1829 -1840 0
-1829 -1841 0
-1829 -1842 0
-1829 -1843 0
-1829 -1844 0
-1829 -1845 0
-1829 -1846 0
-1829 -1847 0
-1829 -1848 0
-1829 -1849 0
-1829 -1850 0
-1829 -1851 0
-1829 -1852 0
-1829 -1853 0
-1829 -1854 0
-1829 -1855 0
-1829 -1856 0
-1829 -1857 0
-1829 -1858 0
-1829 -1859 0
-1829 -1860 0
-1829 -1861 0
-1829 -1862 0
-1829 -1863 0
-1829 -1864 0
-1829 -1865 0
-1829 -1866 0
-1829 -1867 0
-1829 -1868 0
-1829 -1869 0
-1829 -1870 0
-1829 -1871 0
-1829 -1872 0
-1829 -1873 0
-1829 -1874 0
-1829 -1875 0
-1829 -1876 0
-1829 -1877 0
-1829 -1878 0
-1829 -1879 0
-1829 -1880 0
-1829 -1881 0
-1829 -1882 0
-1829 -1883 0
-1830 -1831 0
-1830 -1832 0
-1830 -1833 0
-1830 -1834 0
-1830 -1835 0
-1830 -1836 0
-1830 -1837 0
-1830 -1838 0
-1830 -1839 0
-1830 -1840 0
-1830 -1841 0
-1830 -1842 0
-1830 -1843 0
-1830 -1844 0
-1830 -1845 0
-1830 -1846 0
-1830 -1847 0
-1830 -1848 0
-1830 -1849 0
-1830 -1850 0
-1830 -1851 0
-1830 -1852 0
-1830 -1853 0
-1830 -1854 0
-1830 -1855 0
-1830 -1856 0
-1830 -1857 0
-1830 -1858 0
-1830 -1859 0
-1830 -1860 0
-1830 -1861 0
-1830 -1862 0
-1830 -1863 0
-1830 -1864 0
-1830 -1865 0
-1830 -1866 0
-1830 -1867 0
-1830 -1868 0
-1830 -1869 0
-1830 -1870 0
-1830 -1871 0
-1830 -1872 0
-1830 -1873 0
-1830 -1874 0
-1830 -1875 0
-1830 -1876 0
-1830 -1877 0
-1830 -1878 0
-1830 -1879 0
-1830 -1880 0
-1830 -1881 0
-1830 -1882 0
-1830 -1883 0
-1831 -1832 0
-1831 -1833 0
-1831 -1834 0
-1831 -1835 0
-1831 -1836 0
-1831 -1837 0
-1831 -1838 0
-1831 -1839 0
-1831 -1840 0
-1831 -1841 0
-1831 -1842 0
-1831 -1843 0
-1831 -1844 0
-1831 -1845 0
-1831 -1846 0
-1831 -1847 0
-1831 -1848 0
-1831 -1849 0
-1831 -1850 0
-1831 -1851 0
-1831 -1852 0
-1831 -1853 0
-1831 -1854 0
-1831 -1855 0
-1831 -1856 0
-1831 -1857 0
-1831 -1858 0
-1831 -1859 0
-1831 -1860 0
-1831 -1861 0
-1831 -1862 0
-1831 -1863 0
-1831 -1864 0
-1831 -1865 0
-1831 -1866 0
-1831 -1867 0
-1831 -1868 0
-1831 -1869 0
-1831 -1870 0
-1831 -1871 0
-1831 -1872 0
-1831 -1873 0
-1831 -1874 0
-1831 -1875 0
-1831 -1876 0
-1831 -1877 0
-1831 -1878 0
-1831 -1879 0
-1831 -1880 0
-1831 -1881 0
-1831 -1882 0
-1831 -1883 0
-1832 -1833 0
-1832 -1834 0
-1832 -1835 0
-1832 -1836 0
-1832 -1837 0
-1832 -1838 0
-1832 -1839 0
-1832 -1840 0
-1832 -1841 0
-1832 -1842 0
-1832 -1843 0
-1832 -1844 0
-1832 -1845 0
-1832 -1846 0
-1832 -1847 0
-1832 -1848 0
-1832 -1849 0
-1832 -1850 0
-1832 -1851 0
-1832 -1852 0
-1832 -1853 0
-1832 -1854 0
-1832 -1855 0
-1832 -1856 0
-1832 -1857 0
-1832 -1858 0
-1832 -1859 0
-1832 -1860 0
-1832 -1861 0
-1832 -1862 0
-1832 -1863 0
-1832 -1864 0
-1832 -1865 0
-1832 -1866 0
-1832 -1867 0
-1832 -1868 0
-1832 -1869 0
-1832 -1870 0
-1832 -1871 0
-1832 -1872 0
-1832 -1873 0
-1832 -1874 0
-1832 -1875 0
-1832 -1876 0
-1832 -1877 0
-1832 -1878 0
-1832 -1879 0
-1832 -1880 0
-1832 -1881 0
-1832 -1882 0
-1832 -1883 0
-1833 -1834 0
-1833 -1835 0
-1833 -1836 0
-1833 -1837 0
-1833 -1838 0
-1833 -1839 0
-1833 -1840 0
-1833 -1841 0
-1833 -1842 0
-1833 -1843 0
-1833 -1844 0
-1833 -1845 0
-1833 -1846 0
-1833 -1847 0
-1833 -1848 0
-1833 -1849 0
-1833 -1850 0
-1833 -1851 0
-1833 -1852 0
-1833 -1853 0
-1833 -1854 0
-1833 -1855 0
-1833 -1856 0
-1833 -1857 0
-1833 -1858 0
-1833 -1859 0
-1833 -1860 0
-1833 -1861 0
-1833 -1862 0
-1833 -1863 0
-1833 -1864 0
-1833 -1865 0
-1833 -1866 0
-1833 -1867 0
-1833 -1868 0
-1833 -1869 0
-1833 -1870 0
-1833 -1871 0
-1833 -1872 0
-1833 -1873 0
-1833 -1874 0
-1833 -1875 0
-1833 -1876 0
-1833 -1877 0
-1833 -1878 0
-1833 -1879 0
-1833 -1880 0
-1833 -1881 0
-1833 -1882 0
-1833 -1883 0
-1834 -1835 0
-1834 -1836 0
-1834 -1837 0
-1834 -1838 0
-1834 -1839 0
-1834 -1840 0
-1834 -1841 0
-1834 -1842 0
-1834 -1843 0
-1834 -1844 0
-1834 -1845 0
-1834 -1846 0
-1834 -1847 0
-1834 -1848 0
-1834 -1849 0
-1834 -1850 0
-1834 -1851 0
-1834 -1852 0
-1834 -1853 0
-1834 -1854 0
-1834 -1855 0
-1834 -1856 0
-1834 -1857 0
-1834 -1858 0
-1834 -1859 0
-1834 -1860 0
-1834 -1861 0
-1834 -1862 0
-1834 -1863 0
-1834 -1864 0
-1834 -1865 0
-1834 -1866 0
-1834 -1867 0
-1834 -1868 0
-1834 -1869 0
-1834 -1870 0
-1834 -1871 0
-1834 -1872 0
-1834 -1873 0
-1834 -1874 0
-1834 -1875 0
-1834 -1876 0
-1834 -1877 0
-1834 -1878 0
-1834 -1879 0
-1834 -1880 0
-1834 -1881 0
-1834 -1882 0
-1834 -1883 0
-1835 -1836 0
-1835 -1837 0
-1835 -1838 0
-1835 -1839 0
-1835 -1840 0
-1835 -1841 0
-1835 -1842 0
-1835 -1843 0
-1835 -1844 0
-1835 -1845 0
-1835 -1846 0
-1835 -1847 0
-1835 -1848 0
-1835 -1849 0
-1835 -1850 0
-1835 -1851 0
-1835 -1852 0
-1835 -1853 0
-1835 -1854 0
-1835 -1855 0
-1835 -1856 0
-1835 -1857 0
-1835 -1858 0
-1835 -1859 0
-1835 -1860 0
-1835 -1861 0
-1835 -1862 0
-1835 -1863 0
-1835 -1864 0
-1835 -1865 0
-1835 -1866 0
-1835 -1867 0
-1835 -1868 0
-1835 -1869 0
-1835 -1870 0
-1835 -1871 0
-1835 -1872 0
-1835 -1873 0
-1835 -1874 0
-1835 -1875 0
-1835 -1876 0
-1835 -1877 0
-1835 -1878 0
-1835 -1879 0
-1835 -1880 0
-1835 -1881 0
-1835 -1882 0
-1835 -1883 0
-1836 -1837 0
-1836 -1838 0
-1836 -1839 0
-1836 -1840 0
-1836 -1841 0
-1836 -1842 0
-1836 -1843 0
-1836 -1844 0
-1836 -1845 0
-1836 -1846 0
-1836 -1847 0
-1836 -1848 0
-1836 -1849 0
-1836 -1850 0
-1836 -1851 0
-1836 -1852 0
-1836 -1853 0
-1836 -1854 0
-1836 -1855 0
-1836 -1856 0
-1836 -1857 0
-1836 -1858 0
-1836 -1859 0
-1836 -1860 0
-1836 -1861 0
-1836 -1862 0
-1836 -1863 0
-1836 -1864 0
-1836 -1865 0
-1836 -1866 0
-1836 -1867 0
-1836 -1868 0
-1836 -1869 0
-1836 -1870 0
-1836 -1871 0
-1836 -1872 0
-1836 -1873 0
-1836 -1874 0
-1836 -1875 0
-1836 -1876 0
-1836 -1877 0
-1836 -1878 0
-1836 -1879 0
-1836 -1880 0
-1836 -1881 0
-1836 -1882 0
-1836 -1883 0
-1837 -1838 0
-1837 -1839 0
-1837 -1840 0
-1837 -1841 0
-1837 -1842 0
-1837 -1843 0
-1837 -1844 0
-1837 -1845 0
-1837 -1846 0
-1837 -1847 0
-1837 -1848 0
-1837 -1849 0
-1837 -1850 0
-1837 -1851 0
-1837 -1852 0
-1837 -1853 0
-1837 -1854 0
-1837 -1855 0
-1837 -1856 0
-1837 -1857 0
-1837 -1858 0
-1837 -1859 0
-1837 -1860 0
-1837 -1861 0
-1837 -1862 0
-1837 -1863 0
-1837 -1864 0
-1837 -1865 0
-1837 -1866 0
-1837 -1867 0
-1837 -1868 0
-1837 -1869 0
-1837 -1870 0
-1837 -1871 0
-1837 -1872 0
-1837 -1873 0
-1837 -1874 0
-1837 -1875 0
-1837 -1876 0
-1837 -1877 0
-1837 -1878 0
-1837 -1879 0
-1837 -1880 0
-1837 -1881 0
-1837 -1882 0
-1837 -1883 0
-1838 -1839 0
-1838 -1840 0
-1838 -1841 0
-1838 -1842 0
-1838 -1843 0
-1838 -1844 0
-1838 -1845 0
-1838 -1846 0
-1838 -1847 0
-1838 -1848 0
-1838 -1849 0
-1838 -1850 0
-1838 -1851 0
-1838 -1852 0
-1838 -1853 0
-1838 -1854 0
-1838 -1855 0
-1838 -1856 0
-1838 -1857 0
-1838 -1858 0
-1838 -1859 0
-1838 -1860 0
-1838 -1861 0
-1838 -1862 0
-1838 -1863 0
-1838 -1864 0
-1838 -1865 0
-1838 -1866 0
-1838 -1867 0
-1838 -1868 0
-1838 -1869 0
-1838 -1870 0
-1838 -1871 0
-1838 -1872 0
-1838 -1873 0
-1838 -1874 0
-1838 -1875 0
-1838 -1876 0
-1838 -1877 0
-1838 -1878 0
-1838 -1879 0
-1838 -1880 0
-1838 -1881 0
-1838 -1882 0
-1838 -1883 0
-1839 -1840 0
-1839 -1841 0
-1839 -1842 0
-1839 -1843 0
-1839 -1844 0
-1839 -1845 0
-1839 -1846 0
-1839 -1847 0
-1839 -1848 0
-1839 -1849 0
-1839 -1850 0
-1839 -1851 0
-1839 -1852 0
-1839 -1853 0
-1839 -1854 0
-1839 -1855 0
-1839 -1856 0
-1839 -1857 0
-1839 -1858 0
-1839 -1859 0
-1839 -1860 0
-1839 -1861 0
-1839 -1862 0
-1839 -1863 0
-1839 -1864 0
-1839 -1865 0
-1839 -1866 0
-1839 -1867 0
-1839 -1868 0
-1839 -1869 0
-1839 -1870 0
-1839 -1871 0
-1839 -1872 0
-1839 -1873 0
-1839 -1874 0
-1839 -1875 0
-1839 -1876 0
-1839 -1877 0
-1839 -1878 0
-1839 -1879 0
-1839 -1880 0
-1839 -1881 0
-1839 -1882 0
-1839 -1883 0
-1840 -1841 0
-1840 -1842 0
-1840 -1843 0
-1840 -1844 0
-1840 -1845 0
-1840 -1846 0
-1840 -1847 0
-1840 -1848 0
-1840 -1849 0
-1840 -1850 0
-1840 -1851 0
-1840 -1852 0
-1840 -1853 0
-1840 -1854 0
-1840 -1855 0
-1840 -1856 0
-1840 -1857 0
-1840 -1858 0
-1840 -1859 0
-1840 -1860 0
-1840 -1861 0
-1840 -1862 0
-1840 -1863 0
-1840 -1864 0
-1840 -1865 0
-1840 -1866 0
-1840 -1867 0
-1840 -1868 0
-1840 -1869 0
-1840 -1870 0
-1840 -1871 0
-1840 -1872 0
-1840 -1873 0
-1840 -1874 0
-1840 -1875 0
-1840 -1876 0
-1840 -1877 0
-1840 -1878 0
-1840 -1879 0
-1840 -1880 0
-1840 -1881 0
-1840 -1882 0
-1840 -1883 0
-1841 -1842 0
-1841 -1843 0
-1841 -1844 0
-1841 -1845 0
-1841 -1846 0
-1841 -1847 0
-1841 -1848 0
-1841 -1849 0
-1841 -1850 0
-1841 -1851 0
-1841 -1852 0
-1841 -1853 0
-1841 -1854 0
-1841 -1855 0
-1841 -1856 0
-1841 -1857 0
-1841 -1858 0
-1841 -1859 0
-1841 -1860 0
-1841 -1861 0
-1841 -1862 0
-1841 -1863 0
-1841 -1864 0
-1841 -1865 0
-1841 -1866 0
-1841 -1867 0
-1841 -1868 0
-1841 -1869 0
-1841 -1870 0
-1841 -1871 0
-1841 -1872 0
-1841 -1873 0
-1841 -1874 0
-1841 -1875 0
-1841 -1876 0
-1841 -1877 0
-1841 -1878 0
-1841 -1879 0
-1841 -1880 0
-1841 -1881 0
-1841 -1882 0
-1841 -1883 0
-1842 -1843 0
-1842 -1844 0
-1842 -1845 0
-1842 -1846 0
-1842 -1847 0
-1842 -1848 0
-1842 -1849 0
-1842 -1850 0
-1842 -1851 0
-1842 -1852 0
-1842 -1853 0
-1842 -1854 0
-1842 -1855 0
-1842 -1856 0
-1842 -1857 0
-1842 -1858 0
-1842 -1859 0
-1842 -1860 0
-1842 -1861 0
-1842 -1862 0
-1842 -1863 0
-1842 -1864 0
-1842 -1865 0
-1842 -1866 0
-1842 -1867 0
-1842 -1868 0
-1842 -1869 0
-1842 -1870 0
-1842 -1871 0
-1842 -1872 0
-1842 -1873 0
-1842 -1874 0
-1842 -1875 0
-1842 -1876 0
-1842 -1877 0
-1842 -1878 0
-1842 -1879 0
-1842 -1880 0
-1842 -1881 0
-1842 -1882 0
-1842 -1883 0
-1843 -1844 0
-1843 -1845 0
-1843 -1846 0
-1843 -1847 0
-1843 -1848 0
-1843 -1849 0
-1843 -1850 0
-1843 -1851 0
-1843 -1852 0
-1843 -1853 0
-1843 -1854 0
-1843 -1855 0
-1843 -1856 0
-1843 -1857 0
-1843 -1858 0
-1843 -1859 0
-1843 -1860 0
-1843 -1861 0
-1843 -1862 0
-1843 -1863 0
-1843 -1864 0
-1843 -1865 0
-1843 -1866 0
-1843 -1867 0
-1843 -1868 0
-1843 -1869 0
-1843 -1870 0
-1843 -1871 0
-1843 -1872 0
-1843 -1873 0
-1843 -1874 0
-1843 -1875 0
-1843 -1876 0
-1843 -1877 0
-1843 -1878 0
-1843 -1879 0
-1843 -1880 0
-1843 -1881 0
-1843 -1882 0
-1843 -1883 0
-1844 -1845 0
-1844 -1846 0
-1844 -1847 0
-1844 -1848 0
-1844 -1849 0
-1844 -1850 0
-1844 -1851 0
-1844 -1852 0
-1844 -1853 0
-1844 -1854 0
-1844 -1855 0
-1844 -1856 0
-1844 -1857 0
-1844 -1858 0
-1844 -1859 0
-1844 -1860 0
-1844 -1861 0
-1844 -1862 0
-1844 -1863 0
-1844 -1864 0
-1844 -1865 0
-1844 -1866 0
-1844 -1867 0
-1844 -1868 0
-1844 -1869 0
-1844 -1870 0
-1844 -1871 0
-1844 -1872 0
-1844 -1873 0
-1844 -1874 0
-1844 -1875 0
-1844 -1876 0
-1844 -1877 0
-1844 -1878 0
-1844 -1879 0
-1844 -1880 0
-1844 -1881 0
-1844 -1882 0
-1844 -1883 0
-1845 -1846 0
-1845 -1847 0
-1845 -1848 0
-1845 -1849 0
-1845 -1850 0
-1845 -1851 0
-1845 -1852 0
-1845 -1853 0
-1845 -1854 0
-1845 -1855 0
-1845 -1856 0
-1845 -1857 0
-1845 -1858 0
-1845 -1859 0
-1845 -1860 0
-1845 -1861 0
-1845 -1862 0
-1845 -1863 0
-1845 -1864 0
-1845 -1865 0
-1845 -1866 0
-1845 -1867 0
-1845 -1868 0
-1845 -1869 0
-1845 -1870 0
-1845 -1871 0
-1845 -1872 0
-1845 -1873 0
-1845 -1874 0
-1845 -1875 0
-1845 -1876 0
-1845 -1877 0
-1845 -1878 0
-1845 -1879 0
-1845 -1880 0
-1845 -1881 0
-1845 -1882 0
-1845 -1883 0
-1846 -1847 0
-1846 -1848 0
-1846 -1849 0
-1846 -1850 0
-1846 -1851 0
-1846 -1852 0
-1846 -1853 0
-1846 -1854 0
-1846 -1855 0
-1846 -1856 0
-1846 -1857 0
-1846 -1858 0
-1846 -1859 0
-1846 -1860 0
-1846 -1861 0
-1846 -1862 0
-1846 -1863 0
-1846 -1864 0
-1846 -1865 0
-1846 -1866 0
-1846 -1867 0
-1846 -1868 0
-1846 -1869 0
-1846 -1870 0
-1846 -1871 0
-1846 -1872 0
-1846 -1873 0
-1846 -1874 0
-1846 -1875 0
-1846 -1876 0
-1846 -1877 0
-1846 -1878 0
-1846 -1879 0
-1846 -1880 0
-1846 -1881 0
-1846 -1882 0
-1846 -1883 0
-1847 -1848 0
-1847 -1849 0
-1847 -1850 0
-1847 -1851 0
-1847 -1852 0
-1847 -1853 0
-1847 -1854 0
-1847 -1855 0
-1847 -1856 0
-1847 -1857 0
-1847 -1858 0
-1847 -1859 0
-1847 -1860 0
-1847 -1861 0
-1847 -1862 0
-1847 -1863 0
-1847 -1864 0
-1847 -1865 0
-1847 -1866 0
-1847 -1867 0
-1847 -1868 0
-1847 -1869 0
-1847 -1870 0
-1847 -1871 0
-1847 -1872 0
-1847 -1873 0
-1847 -1874 0
-1847 -1875 0
-1847 -1876 0
-1847 -1877 0
-1847 -1878 0
-1847 -1879 0
-1847 -1880 0
-1847 -1881 0
-1847 -1882 0
-1847 -1883 0
-1848 -1849 0
-1848 -1850 0
-1848 -1851 0
-1848 -1852 0
-1848 -1853 0
-1848 -1854 0
-1848 -1855 0
-1848 -1856 0
-1848 -1857 0
-1848 -1858 0
-1848 -1859 0
-1848 -1860 0
-1848 -1861 0
-1848 -1862 0
-1848 -1863 0
-1848 -1864 0
-1848 -1865 0
-1848 -1866 0
-1848 -1867 0
-1848 -1868 0
-1848 -1869 0
-1848 -1870 0
-1848 -1871 0
-1848 -1872 0
-1848 -1873 0
-1848 -1874 0
-1848 -1875 0
-1848 -1876 0
-1848 -1877 0
-1848 -1878 0
-1848 -1879 0
-1848 -1880 0
-1848 -1881 0
-1848 -1882 0
-1848 -1883 0
-1849 -1850 0
-1849 -1851 0
-1849 -1852 0
-1849 -1853 0
-1849 -1854 0
-1849 -1855 0
-1849 -1856 0
-1849 -1857 0
-1849 -1858 0
-1849 -1859 0
-1849 -1860 0
-1849 -1861 0
-1849 -1862 0
-1849 -1863 0
-1849 -1864 0
-1849 -1865 0
-1849 -1866 0
-1849 -1867 0
-1849 -1868 0
-1849 -1869 0
-1849 -1870 0
-1849 -1871 0
-1849 -1872 0
-1849 -1873 0
-1849 -1874 0
-1849 -1875 0
-1849 -1876 0
-1849 -1877 0
-1849 -1878 0
-1849 -1879 0
-1849 -1880 0
-1849 -1881 0
-1849 -1882 0
-1849 -1883 0
-1850 -1851 0
-1850 -1852 0
-1850 -1853 0
-1850 -1854 0
-1850 -1855 0
-1850 -1856 0
-1850 -1857 0
-1850 -1858 0
-1850 -1859 0
-1850 -1860 0
-1850 -1861 0
-1850 -1862 0
-1850 -1863 0
-1850 -1864 0
-1850 -1865 0
-1850 -1866 0
-1850 -1867 0
-1850 -1868 0
-1850 -1869 0
-1850 -1870 0
-1850 -1871 0
-1850 -1872 0
-1850 -1873 0
-1850 -1874 0
-1850 -1875 0
-1850 -1876 0
-1850 -1877 0
-1850 -1878 0
-1850 -1879 0
-1850 -1880 0
-1850 -1881 0
-1850 -1882 0
-1850 -1883 0
-1851 -1852 0
-1851 -1853 0
-1851 -1854 0
-1851 -1855 0
-1851 -1856 0
-1851 -1857 0
-1851 -1858 0
-1851 -1859 0
-1851 -1860 0
-1851 -1861 0
-1851 -1862 0
-1851 -1863 0
-1851 -1864 0
-1851 -1865 0
-1851 -1866 0
-1851 -1867 0
-1851 -1868 0
-1851 -1869 0
-1851 -1870 0
-1851 -1871 0
-1851 -1872 0
-1851 -1873 0
-1851 -1874 0
-1851 -1875 0
-1851 -1876 0
-1851 -1877 0
-1851 -1878 0
-1851 -1879 0
-1851 -1880 0
-1851 -1881 0
-1851 -1882 0
-1851 -1883 0
-1852 -1853 0
-1852 -1854 0
-1852 -1855 0
-1852 -1856 0
-1852 -1857 0
-1852 -1858 0
-1852 -1859 0
-1852 -1860 0
-1852 -1861 0
-1852 -1862 0
-1852 -1863 0
-1852 -1864 0
-1852 -1865 0
-1852 -1866 0
-1852 -1867 0
-1852 -1868 0
-1852 -1869 0
-1852 -1870 0
-1852 -1871 0
-1852 -1872 0
-1852 -1873 0
-1852 -1874 0
-1852 -1875 0
-1852 -1876 0
-1852 -1877 0
-1852 -1878 0
-1852 -1879 0
-1852 -1880 0
-1852 -1881 0
-1852 -1882 0
-1852 -1883 0
-1853 -1854 0
-1853 -1855 0
-1853 -1856 0
-1853 -1857 0
-1853 -1858 0
-1853 -1859 0
-1853 -1860 0
-1853 -1861 0
-1853 -1862 0
-1853 -1863 0
-1853 -1864 0
-1853 -1865 0
-1853 -1866 0
-1853 -1867 0
-1853 -1868 0
-1853 -1869 0
-1853 -1870 0
-1853 -1871 0
-1853 -1872 0
-1853 -1873 0
-1853 -1874 0
-1853 -1875 0
-1853 -1876 0
-1853 -1877 0
-1853 -1878 0
-1853 -1879 0
-1853 -1880 0
-1853 -1881 0
-1853 -1882 0
-1853 -1883 0
-1854 -1855 0
-1854 -1856 0
-1854 -1857 0
-1854 -1858 0
-1854 -1859 0
-1854 -1860 0
-1854 -1861 0
-1854 -1862 0
-1854 -1863 0
-1854 -1864 0
-1854 -1865 0
-1854 -1866 0
-1854 -1867 0
-1854 -1868 0
-1854 -1869 0
-1854 -1870 0
-1854 -1871 0
-1854 -1872 0
-1854 -1873 0
-1854 -1874 0
-1854 -1875 0
-1854 -1876 0
-1854 -1877 0
-1854 -1878 0
-1854 -1879 0
-1854 -1880 0
-1854 -1881 0
-1854 -1882 0
-1854 -1883 0
-1855 -1856 0
-1855 -1857 0
-1855 -1858 0
-1855 -1859 0
-1855 -1860 0
-1855 -1861 0
-1855 -1862 0
-1855 -1863 0
-1855 -1864 0
-1855 -1865 0
-1855 -1866 0
-1855 -1867 0
-1855 -1868 0
-1855 -1869 0
-1855 -1870 0
-1855 -1871 0
-1855 -1872 0
-1855 -1873 0
-1855 -1874 0
-1855 -1875 0
-1855 -1876 0
-1855 -1877 0
-1855 -1878 0
-1855 -1879 0
-1855 -1880 0
-1855 -1881 0
-1855 -1882 0
-1855 -1883 0
-1856 -1857 0
-1856 -1858 0
-1856 -1859 0
-1856 -1860 0
-1856 -1861 0
-1856 -1862 0
-1856 -1863 0
-1856 -1864 0
-1856 -1865 0
-1856 -1866 0
-1856 -1867 0
-1856 -1868 0
-1856 -1869 0
-1856 -1870 0
-1856 -1871 0
-1856 -1872 0
-1856 -1873 0
-1856 -1874 0
-1856 -1875 0
-1856 -1876 0
-1856 -1877 0
-1856 -1878 0
-1856 -1879 0
-1856 -1880 0
-1856 -1881 0
-1856 -1882 0
-1856 -1883 0
-1857 -1858 0
-1857 -1859 0
-1857 -1860 0
-1857 -1861 0
-1857 -1862 0
-1857 -1863 0
-1857 -1864 0
-1857 -1865 0
-1857 -1866 0
-1857 -1867 0
-1857 -1868 0
-1857 -1869 0
-1857 -1870 0
-1857 -1871 0
-1857 -1872 0
-1857 -1873 0
-1857 -1874 0
-1857 -1875 0
-1857 -1876 0
-1857 -1877 0
-1857 -1878 0
-1857 -1879 0
-1857 -1880 0
-1857 -1881 0
-1857 -1882 0
-1857 -1883 0
-1858 -1859 0
-1858 -1860 0
-1858 -1861 0
-1858 -1862 0
-1858 -1863 0
-1858 -1864 0
-1858 -1865 0
-1858 -1866 0
-1858 -1867 0
-1858 -1868 0
-1858 -1869 0
-1858 -1870 0
-1858 -1871 0
-1858 -1872 0
-1858 -1873 0
-1858 -1874 0
-1858 -1875 0
-1858 -1876 0
-1858 -1877 0
-1858 -1878 0
-1858 -1879 0
-1858 -1880 0
-1858 -1881 0
-1858 -1882 0
-1858 -1883 0
-1859 -1860 0
-1859 -1861 0
-1859 -1862 0
-1859 -1863 0
-1859 -1864 0
-1859 -1865 0
-1859 -1866 0
-1859 -1867 0
-1859 -1868 0
-1859 -1869 0
-1859 -1870 0
-1859 -1871 0
-1859 -1872 0
-1859 -1873 0
-1859 -1874 0
-1859 -1875 0
-1859 -1876 0
-1859 -1877 0
-1859 -1878 0
-1859 -1879 0
-1859 -1880 0
-1859 -1881 0
-1859 -1882 0
-1859 -1883 0
-1860 -1861 0
-1860 -1862 0
-1860 -1863 0
-1860 -1864 0
-1860 -1865 0
-1860 -1866 0
-1860 -1867 0
-1860 -1868 0
-1860 -1869 0
-1860 -1870 0
-1860 -1871 0
-1860 -1872 0
-1860 -1873 0
-1860 -1874 0
-1860 -1875 0
-1860 -1876 0
-1860 -1877 0
-1860 -1878 0
-1860 -1879 0
-1860 -1880 0
-1860 -1881 0
-1860 -1882 0
-1860 -1883 0
-1861 -1862 0
-1861 -1863 0
-1861 -1864 0
-1861 -1865 0
-1861 -1866 0
-1861 -1867 0
-1861 -1868 0
-1861 -1869 0
-1861 -1870 0
-1861 -1871 0
-1861 -1872 0
-1861 -1873 0
-1861 -1874 0
-1861 -1875 0
-1861 -1876 0
-1861 -1877 0
-1861 -1878 0
-1861 -1879 0
-1861 -1880 0
-1861 -1881 0
-1861 -1882 0
-1861 -1883 0
-1862 -1863 0
-1862 -1864 0
-1862 -1865 0
-1862 -1866 0
-1862 -1867 0
-1862 -1868 0
-1862 -1869 0
-1862 -1870 0
-1862 -1871 0
-1862 -1872 0
-1862 -1873 0
-1862 -1874 0
-1862 -1875 0
-1862 -1876 0
-1862 -1877 0
-1862 -1878 0
-1862 -1879 0
-1862 -1880 0
-1862 -1881 0
-1862 -1882 0
-1862 -1883 0
-1863 -1864 0
-1863 -1865 0
-1863 -1866 0
-1863 -1867 0
-1863 -1868 0
-1863 -1869 0
-1863 -1870 0
-1863 -1871 0
-1863 -1872 0
-1863 -1873 0
-1863 -1874 0
-1863 -1875 0
-1863 -1876 0
-1863 -1877 0
-1863 -1878 0
-1863 -1879 0
-1863 -1880 0
-1863 -1881 0
-1863 -1882 0
-1863 -1883 0
-1864 -1865 0
-1864 -1866 0
-1864 -1867 0
-1864 -1868 0
-1864 -1869 0
-1864 -1870 0
-1864 -1871 0
-1864 -1872 0
-1864 -1873 0
-1864 -1874 0
-1864 -1875 0
-1864 -1876 0
-1864 -1877 0
-1864 -1878 0
-1864 -1879 0
-1864 -1880 0
-1864 -1881 0
-1864 -1882 0
-1864 -1883 0
-1865 -1866 0
-1865 -1867 0
-1865 -1868 0
-1865 -1869 0
-1865 -1870 0
-1865 -1871 0
-1865 -1872 0
-1865 -1873 0
-1865 -1874 0
-1865 -1875 0
-1865 -1876 0
-1865 -1877 0
-1865 -1878 0
-1865 -1879 0
-1865 -1880 0
-1865 -1881 0
-1865 -1882 0
-1865 -1883 0
-1866 -1867 0
-1866 -1868 0
-1866 -1869 0
-1866 -1870 0
-1866 -1871 0
-1866 -1872 0
-1866 -1873 0
-1866 -1874 0
-1866 -1875 0
-1866 -1876 0
-1866 -1877 0
-1866 -1878 0
-1866 -1879 0
-1866 -1880 0
-1866 -1881 0
-1866 -1882 0
-1866 -1883 0
-1867 -1868 0
-1867 -1869 0
-1867 -1870 0
-1867 -1871 0
-1867 -1872 0
-1867 -1873 0
-1867 -1874 0
-1867 -1875 0
-1867 -1876 0
-1867 -1877 0
-1867 -1878 0
-1867 -1879 0
-1867 -1880 0
-1867 -1881 0
-1867 -1882 0
-1867 -1883 0
-1868 -1869 0
-1868 -1870 0
-1868 -1871 0
-1868 -1872 0
-1868 -1873 0
-1868 -1874 0
-1868 -1875 0
-1868 -1876 0
-1868 -1877 0
-1868 -1878 0
-1868 -1879 0
-1868 -1880 0
-1868 -1881 0
-1868 -1882 0
-1868 -1883 0
-1869 -1870 0
-1869 -1871 0
-1869 -1872 0
-1869 -1873 0
-1869 -1874 0
-1869 -1875 0
-1869 -1876 0
-1869 -1877 0
-1869 -1878 0
-1869 -1879 0
-1869 -1880 0
-1869 -1881 0
-1869 -1882 0
-1869 -1883 0
-1870 -1871 0
-1870 -1872 0
-1870 -1873 0
-1870 -1874 0
-1870 -1875 0
-1870 -1876 0
-1870 -1877 0
-1870 -1878 0
-1870 -1879 0
-1870 -1880 0
-1870 -1881 0
-1870 -1882 0
-1870 -1883 0
-1871 -1872 0
-1871 -1873 0
-1871 -1874 0
-1871 -1875 0
-1871 -1876 0
-1871 -1877 0
-1871 -1878 0
-1871 -1879 0
-1871 -1880 0
-1871 -1881 0
-1871 -1882 0
-1871 -1883 0
-1872 -1873 0
-1872 -1874 0
-1872 -1875 0
-1872 -1876 0
-1872 -1877 0
-1872 -1878 0
-1872 -1879 0
-1872 -1880 0
-1872 -1881 0
-1872 -1882 0
-1872 -1883 0
-1873 -1874 0
-1873 -1875 0
-1873 -1876 0
-1873 -1877 0
-1873 -1878 0
-1873 -1879 0
-1873 -1880 0
-1873 -1881 0
-1873 -1882 0
-1873 -1883 0
-1874 -1875 0
-1874 -1876 0
-1874 -1877 0
-1874 -1878 0
-1874 -1879 0
-1874 -1880 0
-1874 -1881 0
-1874 -1882 0
-1874 -1883 0
-1875 -1876 0
-1875 -1877 0
-1875 -1878 0
-1875 -1879 0
-1875 -1880 0
-1875 -1881 0
-1875 -1882 0
-1875 -1883 0
-1876 -1877 0
-1876 -1878 0
-1876 -1879 0
-1876 -1880 0
-1876 -1881 0
-1876 -1882 0
-1876 -1883 0
-1877 -1878 0
-1877 -1879 0
-1877 -1880 0
-1877 -1881 0
-1877 -1882 0
-1877 -1883 0
-1878 -1879 0
-1878 -1880 0
-1878 -1881 0
-1878 -1882 0
-1878 -1883 0
-1879 -1880 0
-1879 -1881 0
-1879 -1882 0
-1879 -1883 0
-1880 -1881 0
-1880 -1882 0
-1880 -1883 0
-1881 -1882 0
-1881 -1883 0
-1882 -1883 0
1884 1885 1886 1887 1888 1889 1890 1891 1892 1893 1894 1895 1896 1897 1898 1899 1900 1901 1902 1903 1904 1905 1906 1907 1908 1909 1910 1911 1912 1913 1914 1915 1916 1917 1918 1919 1920 1921 1922 1923 1924 1925 1926 1927 1928 1929 1930 1931 1932 1933 1934 1935 1936 1937 1938 1939 1940 1941 1942 1943 1944 1945 1946 1947 1948 1949 1950 1951 1952 1953 1954 1955 1956 1957 1958 1959 1960 1961 1962 1963 1964 1965 1966 1967 0
-1884 -1885 0
-1884 -1886 0
-1884 -1887 0
-1884 -1888 0
-1884 -1889 0
-1884 -1890 0
-1884 -1891 0
-1884 -1892 0
-1884 -1893 0
-1884 -1894 0
-1884 -1895 0
-1884 -1896 0
-1884 -1897 0
-1884 -1898 0
-1884 -1899 0
-1884 -1900 0
-1884 -1901 0
-1884 -1902 0
-1884 -1903 0
-1884 -1904 0
-1884 -1905 0
-1884 -1906 0
-1884 -1907 0
-1884 -1908 0
-1884 -1909 0
-1884 -1910 0
-1884 -1911 0
-1884 -1912 0
-1884 -1913 0
-1884 -1914 0
-1884 -1915 0
-1884 -1916 0
-1884 -1917 0
-1884 -1918 0
-1884 -1919 0
-1884 -1920 0
-1884 -1921 0
-1884 -1922 0
-1884 -1923 0
-1884 -1924 0
-1884 -1925 0
-1884 -1926 0
-1884 -1927 0
-1884 -1928 0
-1884 -1929 0
-1884 -1930 0
-1884 -1931 0
-1884 -1932 0
-1884 -1933 0
-1884 -1934 0
-1884 -1935 0
-1884 -1936 0
-1884 -1937 0
-1884 -1938 0
-1884 -1939 0
-1884 -1940 0
-1884 -1941 0
-1884 -1942 0
-1884 -1943 0
-1884 -1944 0
-1884 -1945 0
-1884 -1946 0
-1884 -1947 0
-1884 -1948 0
-1884 -1949 0
-1884 -1950 0
-1884 -1951 0
-1884 -1952 0
-1884 -1953 0
-1884 -1954 0
-1884 -1955 0
-1884 -1956 0
-1884 -1957 0
-1884 -1958 0
-1884 -1959 0
-1884 -1960 0
-1884 -1961 0
-1884 -1962 0
-1884 -1963 0
-1884 -1964 0
-1884 -1965 0
-1884 -1966 0
-1884 -1967 0
-1885 -1886 0
-1885 -1887 0
-1885 -1888 0
-1885 -1889 0
-1885 -1890 0
-1885 -1891 0
-1885 -1892 0
-1885 -1893 0
-1885 -1894 0
-1885 -1895 0
-1885 -1896 0
-1885 -1897 0
-1885 -1898 0
-1885 -1899 0
-1885 -1900 0
-1885 -1901 0
-1885 -1902 0
-1885 -1903 0
-1885 -1904 0
-1885 -1905 0
-1885 -1906 0
-1885 -1907 0
-1885 -1908 0
-1885 -1909 0
-1885 -1910 0
-1885 -1911 0
-1885 -1912 0
-1885 -1913 0
-1885 -1914 0
-1885 -1915 0
-1885 -1916 0
-1885 -1917 0
-1885 -1918 0
-1885 -1919 0
-1885 -1920 0
-1885 -1921 0
-1885 -1922 0
-1885 -1923 0
-1885 -1924 0
-1885 -1925 0
-1885 -1926 0
-1885 -1927 0
-1885 -1928 0
-1885 -1929 0
-1885 -1930 0
-1885 -1931 0
-1885 -1932 0
-1885 -1933 0
-1885 -1934 0
-1885 -1935 0
-1885 -1936 0
-1885 -1937 0
-1885 -1938 0
-1885 -1939 0
-1885 -1940 0
-1885 -1941 0
-1885 -1942 0
-1885 -1943 0
-1885 -1944 0
-1885 -1945 0
-1885 -1946 0
-1885 -1947 0
-1885 -1948 0
-1885 -1949 0
-1885 -1950 0
-1885 -1951 0
-1885 -1952 0
-1885 -1953 0
-1885 -1954 0
-1885 -1955 0
-1885 -1956 0
-1885 -1957 0
-1885 -1958 0
-1885 -1959 0
-1885 -1960 0
-1885 -1961 0
-1885 -1962 0
-1885 -1963 0
-1885 -1964 0
-1885 -1965 0
-1885 -1966 0
-1885 -1967 0
-1886 -1887 0
-1886 -1888 0
-1886 -1889 0
-1886 -1890 0
-1886 -1891 0
-1886 -1892 0
-1886 -1893 0
-1886 -1894 0
-1886 -1895 0
-1886 -1896 0
-1886 -1897 0
-1886 -1898 0
-1886 -1899 0
-1886 -1900 0
-1886 -1901 0
-1886 -1902 0
-1886 -1903 0
-1886 -1904 0
-1886 -1905 0
-1886 -1906 0
-1886 -1907 0
-1886 -1908 0
-1886 -1909 0
-1886 -1910 0
-1886 -1911 0
-1886 -1912 0
-1886 -1913 0
-1886 -1914 0
-1886 -1915 0
-1886 -1916 0
-1886 -1917 0
-1886 -1918 0
-1886 -1919 0
-1886 -1920 0
-1886 -1921 0
-1886 -1922 0
-1886 -1923 0
-1886 -1924 0
-1886 -1925 0
-1886 -1926 0
-1886 -1927 0
-1886 -1928 0
-1886 -1929 0
-1886 -1930 0
-1886 -1931 0
-1886 -1932 0
-1886 -1933 0
-1886 -1934 0
-1886 -1935 0
-1886 -1936 0
-1886 -1937 0
-1886 -1938 0
-1886 -1939 0
-1886 -1940 0
-1886 -1941 0
-1886 -1942 0
-1886 -1943 0
-1886 -1944 0
-1886 -1945 0
-1886 -1946 0
-1886 -1947 0
-1886 -1948 0
-1886 -1949 0
-1886 -1950 0
-1886 -1951 0
-1886 -1952 0
-1886 -1953 0
-1886 -1954 0
-1886 -1955 0
-1886 -1956 0
-1886 -1957 0
-1886 -1958 0
-1886 -1959 0
-1886 -1960 0
-1886 -1961 0
-1886 -1962 0
-1886 -1963 0
-1886 -1964 0
-1886 -1965 0
-1886 -1966 0
-1886 -1967 0
-1887 -1888 0
-1887 -1889 0
-1887 -1890 0
-1887 -1891 0
-1887 -1892 0
-1887 -1893 0
-1887 -1894 0
-1887 -1895 0
-1887 -1896 0
-1887 -1897 0
-1887 -1898 0
-1887 -1899 0
-1887 -1900 0
-1887 -1901 0
-1887 -1902 0
-1887 -1903 0
-1887 -1904 0
-1887 -1905 0
-1887 -1906 0
-1887 -1907 0
-1887 -1908 0
-1887 -1909 0
-1887 -1910 0
-1887 -1911 0
-1887 -1912 0
-1887 -1913 0
-1887 -1914 0
-1887 -1915 0
-1887 -1916 0
-1887 -1917 0
-1887 -1918 0
-1887 -1919 0
-1887 -1920 0
-1887 -1921 0
-1887 -1922 0
-1887 -1923 0
-1887 -1924 0
-1887 -1925 0
-1887 -1926 0
-1887 -1927 0
-1887 -1928 0
-1887 -1929 0
-1887 -1930 0
-1887 -1931 0
-1887 -1932 0
-1887 -1933 0
-1887 -1934 0
-1887 -1935 0
-1887 -1936 0
-1887 -1937 0
-1887 -1938 0
-1887 -1939 0
-1887 -1940 0
-1887 -1941 0
-1887 -1942 0
-1887 -1943 0
-1887 -1944 0
-1887 -1945 0
-1887 -1946 0
-1887 -1947 0
-1887 -1948 0
-1887 -1949 0
-1887 -1950 0
-1887 -1951 0
-1887 -1952 0
-1887 -1953 0
-1887 -1954 0
-1887 -1955 0
-1887 -1956 0
-1887 -1957 0
-1887 -1958 0
-1887 -1959 0
-1887 -1960 0
-1887 -1961 0
-1887 -1962 0
-1887 -1963 0
-1887 -1964 0
-1887 -1965 0
-1887 -1966 0
-1887 -1967 0
-1888 -1889 0
-1888 -1890 0
-1888 -1891 0
-1888 -1892 0
-1888 -1893 0
-1888 -1894 0
-1888 -1895 0
-1888 -1896 0
-1888 -1897 0
-1888 -1898 0
-1888 -1899 0
-1888 -1900 0
-1888 -1901 0
-1888 -1902 0
-1888 -1903 0
-1888 -1904 0
-1888 -1905 0
-1888 -1906 0
-1888 -1907 0
-1888 -1908 0
-1888 -1909 0
-1888 -1910 0
-1888 -1911 0
-1888 -1912 0
-1888 -1913 0
-1888 -1914 0
-1888 -1915 0
-1888 -1916 0
-1888 -1917 0
-1888 -1918 0
-1888 -1919 0
-1888 -1920 0
-1888 -1921 0
-1888 -1922 0
-1888 -1923 0
-1888 -1924 0
-1888 -1925 0
-1888 -1926 0
-1888 -1927 0
-1888 -1928 0
-1888 -1929 0
-1888 -1930 0
-1888 -1931 0
-1888 -1932 0
-1888 -1933 0
-1888 -1934 0
-1888 -1935 0
-1888 -1936 0
-1888 -1937 0
-1888 -1938 0
-1888 -1939 0
-1888 -1940 0
-1888 -1941 0
-1888 -1942 0
-1888 -1943 0
-1888 -1944 0
-1888 -1945 0
-1888 -1946 0
-1888 -1947 0
-1888 -1948 0
-1888 -1949 0
-1888 -1950 0
-1888 -1951 0
-1888 -1952 0
-1888 -1953 0
-1888 -1954 0
-1888 -1955 0
-1888 -1956 0
-1888 -1957 0
-1888 -1958 0
-1888 -1959 0
-1888 -1960 0
-1888 -1961 0
-1888 -1962 0
-1888 -1963 0
-1888 -1964 0
-1888 -1965 0
-1888 -1966 0
-1888 -1967 0
-1889 -1890 0
-1889 -1891 0
-1889 -1892 0
-1889 -1893 0
-1889 -1894 0
-1889 -1895 0
-1889 -1896 0
-1889 -1897 0
-1889 -1898 0
-1889 -1899 0
-1889 -1900 0
-1889 -1901 0
-1889 -1902 0
-1889 -1903 0
-1889 -1904 0
-1889 -1905 0
-1889 -1906 0
-1889 -1907 0
-1889 -1908 0
-1889 -1909 0
-1889 -1910 0
-1889 -1911 0
-1889 -1912 0
-1889 -1913 0
-1889 -1914 0
-1889 -1915 0
-1889 -1916 0
-1889 -1917 0
-1889 -1918 0
-1889 -1919 0
-1889 -1920 0
-1889 -1921 0
-1889 -1922 0
-1889 -1923 0
-1889 -1924 0
-1889 -1925 0
-1889 -1926 0
-1889 -1927 0
-1889 -1928 0
-1889 -1929 0
-1889 -1930 0
-1889 -1931 0
-1889 -1932 0
-1889 -1933 0
-1889 -1934 0
-1889 -1935 0
-1889 -1936 0
-1889 -1937 0
-1889 -1938 0
-1889 -1939 0
-1889 -1940 0
-1889 -1941 0
-1889 -1942 0
-1889 -1943 0
-1889 -1944 0
-1889 -1945 0
-1889 -1946 0
-1889 -1947 0
-1889 -1948 0
-1889 -1949 0
-1889 -1950 0
-1889 -1951 0
-1889 -1952 0
-1889 -1953 0
-1889 -1954 0
-1889 -1955 0
-1889 -1956 0
-1889 -1957 0
-1889 -1958 0
-1889 -1959 0
-1889 -1960 0
-1889 -1961 0
-1889 -1962 0
-1889 -1963 0
-1889 -1964 0
-1889 -1965 0
-1889 -1966 0
-1889 -1967 0
-1890 -1891 0
-1890 -1892 0
-1890 -1893 0
-1890 -1894 0
-1890 -1895 0
-1890 -1896 0
-1890 -1897 0
-1890 -1898 0
-1890 -1899 0
-1890 -1900 0
-1890 -1901 0
-1890 -1902 0
-1890 -1903 0
-1890 -1904 0
-1890 -1905 0
-1890 -1906 0
-1890 -1907 0
-1890 -1908 0
-1890 -1909 0
-1890 -1910 0
-1890 -1911 0
-1890 -1912 0
-1890 -1913 0
-1890 -1914 0
-1890 -1915 0
-1890 -1916 0
-1890 -1917 0
-1890 -1918 0
-1890 -1919 0
-1890 -1920 0
-1890 -1921 0
-1890 -1922 0
-1890 -1923 0
-1890 -1924 0
-1890 -1925 0
-1890 -1926 0
-1890 -1927 0
-1890 -1928 0
-1890 -1929 0
-1890 -1930 0
-1890 -1931 0
-1890 -1932 0
-1890 -1933 0
-1890 -1934 0
-1890 -1935 0
-1890 -1936 0
-1890 -1937 0
-1890 -1938 0
-1890 -1939 0
-1890 -1940 0
-1890 -1941 0
-1890 -1942 0
-1890 -1943 0
-1890 -1944 0
-1890 -1945 0
-1890 -1946 0
-1890 -1947 0
-1890 -1948 0
-1890 -1949 0
-1890 -1950 0
-1890 -1951 0
-1890 -1952 0
-1890 -1953 0
-1890 -1954 0
-1890 -1955 0
-1890 -1956 0
-1890 -1957 0
-1890 -1958 0
-1890 -1959 0
-1890 -1960 0
-1890 -1961 0
-1890 -1962 0
-1890 -1963 0
-1890 -1964 0
-1890 -1965 0
-1890 -1966 0
-1890 -1967 0
-1891 -1892 0
-1891 -1893 0
-1891 -1894 0
-1891 -1895 0
-1891 -1896 0
-1891 -1897 0
-1891 -1898 0
-1891 -1899 0
-1891 -1900 0
-1891 -1901 0
-1891 -1902 0
-1891 -1903 0
-1891 -1904 0
-1891 -1905 0
-1891 -1906 0
-1891 -1907 0
-1891 -1908 0
-1891 -1909 0
-1891 -1910 0
-1891 -1911 0
-1891 -1912 0
-1891 -1913 0
-1891 -1914 0
-1891 -1915 0
-1891 -1916 0
-1891 -1917 0
-1891 -1918 0
-1891 -1919 0
-1891 -1920 0
-1891 -1921 0
-1891 -1922 0
-1891 -1923 0
-1891 -1924 0
-1891 -1925 0
-1891 -1926 0
-1891 -1927 0
-1891 -1928 0
-1891 -1929 0
-1891 -1930 0
-1891 -1931 0
-1891 -1932 0
-1891 -1933 0
-1891 -1934 0
-1891 -1935 0
-1891 -1936 0
-1891 -1937 0
-1891 -1938 0
-1891 -1939 0
-1891 -1940 0
-1891 -1941 0
-1891 -1942 0
-1891 -1943 0
-1891 -1944 0
-1891 -1945 0
-1891 -1946 0
-1891 -1947 0
-1891 -1948 0
-1891 -1949 0
-1891 -1950 0
-1891 -1951 0
-1891 -1952 0
-1891 -1953 0
-1891 -1954 0
-1891 -1955 0
-1891 -1956 0
-1891 -1957 0
-1891 -1958 0
-1891 -1959 0
-1891 -1960 0
-1891 -1961 0
-1891 -1962 0
-1891 -1963 0
-1891 -1964 0
-1891 -1965 0
-1891 -1966 0
-1891 -1967 0
-1892 -1893 0
-1892 -1894 0
-1892 -1895 0
-1892 -1896 0
-1892 -1897 0
-1892 -1898 0
-1892 -1899 0
-1892 -1900 0
-1892 -1901 0
-1892 -1902 0
-1892 -1903 0
-1892 -1904 0
-1892 -1905 0
-1892 -1906 0
-1892 -1907 0
-1892 -1908 0
-1892 -1909 0
-1892 -1910 0
-1892 -1911 0
-1892 -1912 0
-1892 -1913 0
-1892 -1914 0
-1892 -1915 0
-1892 -1916 0
-1892 -1917 0
-1892 -1918 0
-1892 -1919 0
-1892 -1920 0
-1892 -1921 0
-1892 -1922 0
-1892 -1923 0
-1892 -1924 0
-1892 -1925 0
-1892 -1926 0
-1892 -1927 0
-1892 -1928 0
-1892 -1929 0
-1892 -1930 0
-1892 -1931 0
-1892 -1932 0
-1892 -1933 0
-1892 -1934 0
-1892 -1935 0
-1892 -1936 0
-1892 -1937 0
-1892 -1938 0
-1892 -1939 0
-1892 -1940 0
-1892 -1941 0
-1892 -1942 0
-1892 -1943 0
-1892 -1944 0
-1892 -1945 0
-1892 -1946 0
-1892 -1947 0
-1892 -1948 0
-1892 -1949 0
-1892 -1950 0
-1892 -1951 0
-1892 -1952 0
-1892 -1953 0
-1892 -1954 0
-1892 -1955 0
-1892 -1956 0
-1892 -1957 0
-1892 -1958 0
-1892 -1959 0
-1892 -1960 0
-1892 -1961 0
-1892 -1962 0
-1892 -1963 0
-1892 -1964 0
-1892 -1965 0
-1892 -1966 0
-1892 -1967 0
-1893 -1894 0
-1893 -1895 0
-1893 -1896 0
-1893 -1897 0
-1893 -1898 0
-1893 -1899 0
-1893 -1900 0
-1893 -1901 0
-1893 -1902 0
-1893 -1903 0
-1893 -1904 0
-1893 -1905 0
-1893 -1906 0
-1893 -1907 0
-1893 -1908 0
-1893 -1909 0
-1893 -1910 0
-1893 -1911 0
-1893 -1912 0
-1893 -1913 0
-1893 -1914 0
-1893 -1915 0
-1893 -1916 0
-1893 -1917 0
-1893 -1918 0
-1893 -1919 0
-1893 -1920 0
-1893 -1921 0
-1893 -1922 0
-1893 -1923 0
-1893 -1924 0
-1893 -1925 0
-1893 -1926 0
-1893 -1927 0
-1893 -1928 0
-1893 -1929 0
-1893 -1930 0
-1893 -1931 0
-1893 -1932 0
-1893 -1933 0
-1893 -1934 0
-1893 -1935 0
-1893 -1936 0
-1893 -1937 0
-1893 -1938 0
-1893 -1939 0
-1893 -1940 0
-1893 -1941 0
-1893 -1942 0
-1893 -1943 0
-1893 -1944 0
-1893 -1945 0
-1893 -1946 0
-1893 -1947 0
-1893 -1948 0
-1893 -1949 0
-1893 -1950 0
-1893 -1951 0
-1893 -1952 0
-1893 -1953 0
-1893 -1954 0
-1893 -1955 0
-1893 -1956 0
-1893 -1957 0
-1893 -1958 0
-1893 -1959 0
-1893 -1960 0
-1893 -1961 0
-1893 -1962 0
-1893 -1963 0
-1893 -1964 0
-1893 -1965 0
-1893 -1966 0
-1893 -1967 0
-1894 -1895 0
-1894 -1896 0
-1894 -1897 0
-1894 -1898 0
-1894 -1899 0
-1894 -1900 0
-1894 -1901 0
-1894 -1902 0
-1894 -1903 0
-1894 -1904 0
-1894 -1905 0
-1894 -1906 0
-1894 -1907 0
-1894 -1908 0
-1894 -1909 0
-1894 -1910 0
-1894 -1911 0
-1894 -1912 0
-1894 -1913 0
-1894 -1914 0
-1894 -1915 0
-1894 -1916 0
-1894 -1917 0
-1894 -1918 0
-1894 -1919 0
-1894 -1920 0
-1894 -1921 0
-1894 -1922 0
-1894 -1923 0
-1894 -1924 0
-1894 -1925 0
-1894 -1926 0
-1894 -1927 0
-1894 -1928 0
-1894 -1929 0
-1894 -1930 0
-1894 -1931 0
-1894 -1932 0
-1894 -1933 0
-1894 -1934 0
-1894 -1935 0
-1894 -1936 0
-1894 -1937 0
-1894 -1938 0
-1894 -1939 0
-1894 -1940 0
-1894 -1941 0
-1894 -1942 0
-1894 -1943 0
-1894 -1944 0
-1894 -1945 0
-1894 -1946 0
-1894 -1947 0
-1894 -1948 0
-1894 -1949 0
-1894 -1950 0
-1894 -1951 0
-1894 -1952 0
-1894 -1953 0
-1894 -1954 0
-1894 -1955 0
-1894 -1956 0
-1894 -1957 0
-1894 -1958 0
-1894 -1959 0
-1894 -1960 0
-1894 -1961 0
-1894 -1962 0
-1894 -1963 0
-1894 -1964 0
-1894 -1965 0
-1894 -1966 0
-1894 -1967 0
-1895 -1896 0
-1895 -1897 0
-1895 -1898 0
-1895 -1899 0
-1895 -1900 0
-1895 -1901 0
-1895 -1902 0
-1895 -1903 0
-1895 -1904 0
-1895 -1905 0
-1895 -1906 0
-1895 -1907 0
-1895 -1908 0
-1895 -1909 0
-1895 -1910 0
-1895 -1911 0
-1895 -1912 0
-1895 -1913 0
-1895 -1914 0
-1895 -1915 0
-1895 -1916 0
-1895 -1917 0
-1895 -1918 0
-1895 -1919 0
-1895 -1920 0
-1895 -1921 0
-1895 -1922 0
-1895 -1923 0
-1895 -1924 0
-1895 -1925 0
-1895 -1926 0
-1895 -1927 0
-1895 -1928 0
-1895 -1929 0
-1895 -1930 0
-1895 -1931 0
-1895 -1932 0
-1895 -1933 0
-1895 -1934 0
-1895 -1935 0
-1895 -1936 0
-1895 -1937 0
-1895 -1938 0
-1895 -1939 0
-1895 -1940 0
-1895 -1941 0
-1895 -1942 0
-1895 -1943 0
-1895 -1944 0
-1895 -1945 0
-1895 -1946 0
-1895 -1947 0
-1895 -1948 0
-1895 -1949 0
-1895 -1950 0
-1895 -1951 0
-1895 -1952 0
-1895 -1953 0
-1895 -1954 0
-1895 -1955 0
-1895 -1956 0
-1895 -1957 0
-1895 -1958 0
-1895 -1959 0
-1895 -1960 0
-1895 -1961 0
-1895 -1962 0
-1895 -1963 0
-1895 -1964 0
-1895 -1965 0
-1895 -1966 0
-1895 -1967 0
-1896 -1897 0
-1896 -1898 0
-1896 -1899 0
-1896 -1900 0
-1896 -1901 0
-1896 -1902 0
-1896 -1903 0
-1896 -1904 0
-1896 -1905 0
-1896 -1906 0
-1896 -1907 0
-1896 -1908 0
-1896 -1909 0
-1896 -1910 0
-1896 -1911 0
-1896 -1912 0
-1896 -1913 0
-1896 -1914 0
-1896 -1915 0
-1896 -1916 0
-1896 -1917 0
-1896 -1918 0
-1896 -1919 0
-1896 -1920 0
-1896 -1921 0
-1896 -1922 0
-1896 -1923 0
-1896 -1924 0
-1896 -1925 0
-1896 -1926 0
-1896 -1927 0
-1896 -1928 0
-1896 -1929 0
-1896 -1930 0
-1896 -1931 0
-1896 -1932 0
-1896 -1933 0
-1896 -1934 0
-1896 -1935 0
-1896 -1936 0
-1896 -1937 0
-1896 -1938 0
-1896 -1939 0
-1896 -1940 0
-1896 -1941 0
-1896 -1942 0
-1896 -1943 0
-1896 -1944 0
-1896 -1945 0
-1896 -1946 0
-1896 -1947 0
-1896 -1948 0
-1896 -1949 0
-1896 -1950 0
-1896 -1951 0
-1896 -1952 0
-1896 -1953 0
-1896 -1954 0
-1896 -1955 0
-1896 -1956 0
-1896 -1957 0
-1896 -1958 0
-1896 -1959 0
-1896 -1960 0
-1896 -1961 0
-1896 -1962 0
-1896 -1963 0
-1896 -1964 0
-1896 -1965 0
-1896 -1966 0
-1896 -1967 0
-1897 -1898 0
-1897 -1899 0
-1897 -1900 0
-1897 -1901 0
-1897 -1902 0
-1897 -1903 0
-1897 -1904 0
-1897 -1905 0
-1897 -1906 0
-1897 -1907 0
-1897 -1908 0
-1897 -1909 0
-1897 -1910 0
-1897 -1911 0
-1897 -1912 0
-1897 -1913 0
-1897 -1914 0
-1897 -1915 0
-1897 -1916 0
-1897 -1917 0
-1897 -1918 0
-1897 -1919 0
-1897 -1920 0
-1897 -1921 0
-1897 -1922 0
-1897 -1923 0
-1897 -1924 0
-1897 -1925 0
-1897 -1926 0
-1897 -1927 0
-1897 -1928 0
-1897 -1929 0
-1897 -1930 0
-1897 -1931 0
-1897 -1932 0
-1897 -1933 0
-1897 -1934 0
-1897 -1935 0
-1897 -1936 0
-1897 -1937 0
-1897 -1938 0
-1897 -1939 0
-1897 -1940 0
-1897 -1941 0
-1897 -1942 0
-1897 -1943 0
-1897 -1944 0
-1897 -1945 0
-1897 -1946 0
-1897 -1947 0
-1897 -1948 0
-1897 -1949 0
-1897 -1950 0
-1897 -1951 0
-1897 -1952 0
-1897 -1953 0
-1897 -1954 0
-1897 -1955 0
-1897 -1956 0
-1897 -1957 0
-1897 -1958 0
-1897 -1959 0
-1897 -1960 0
-1897 -1961 0
-1897 -1962 0
-1897 -1963 0
-1897 -1964 0
-1897 -1965 0
-1897 -1966 0
-1897 -1967 0
-1898 -1899 0
-1898 -1900 0
-1898 -1901 0
-1898 -1902 0
-1898 -1903 0
-1898 -1904 0
-1898 -1905 0
-1898 -1906 0
-1898 -1907 0
-1898 -1908 0
-1898 -1909 0
-1898 -1910 0
-1898 -1911 0
-1898 -1912 0
-1898 -1913 0
-1898 -1914 0
-1898 -1915 0
-1898 -1916 0
-1898 -1917 0
-1898 -1918 0
-1898 -1919 0
-1898 -1920 0
-1898 -1921 0
-1898 -1922 0
-1898 -1923 0
-1898 -1924 0
-1898 -1925 0
-1898 -1926 0
-1898 -1927 0
-1898 -1928 0
-1898 -1929 0
-1898 -1930 0
-1898 -1931 0
-1898 -1932 0
-1898 -1933 0
-1898 -1934 0
-1898 -1935 0
-1898 -1936 0
-1898 -1937 0
-1898 -1938 0
-1898 -1939 0
-1898 -1940 0
-1898 -1941 0
-1898 -1942 0
-1898 -1943 0
-1898 -1944 0
-1898 -1945 0
-1898 -1946 0
-1898 -1947 0
-1898 -1948 0
-1898 -1949 0
-1898 -1950 0
-1898 -1951 0
-1898 -1952 0
-1898 -1953 0
-1898 -1954 0
-1898 -1955 0
-1898 -1956 0
-1898 -1957 0
-1898 -1958 0
-1898 -1959 0
-1898 -1960 0
-1898 -1961 0
-1898 -1962 0
-1898 -1963 0
-1898 -1964 0
-1898 -1965 0
-1898 -1966 0
-1898 -1967 0
-1899 -1900 0
-1899 -1901 0
-1899 -1902 0
-1899 -1903 0
-1899 -1904 0
-1899 -1905 0
-1899 -1906 0
-1899 -1907 0
-1899 -1908 0
-1899 -1909 0
-1899 -1910 0
-1899 -1911 0
-1899 -1912 0
-1899 -1913 0
-1899 -1914 0
-1899 -1915 0
-1899 -1916 0
-1899 -1917 0
-1899 -1918 0
-1899 -1919 0
-1899 -1920 0
-1899 -1921 0
-1899 -1922 0
-1899 -1923 0
-1899 -1924 0
-1899 -1925 0
-1899 -1926 0
-1899 -1927 0
-1899 -1928 0
-1899 -1929 0
-1899 -1930 0
-1899 -1931 0
-1899 -1932 0
-1899 -1933 0
-1899 -1934 0
-1899 -1935 0
-1899 -1936 0
-1899 -1937 0
-1899 -1938 0
-1899 -1939 0
-1899 -1940 0
-1899 -1941 0
-1899 -1942 0
-1899 -1943 0
-1899 -1944 0
-1899 -1945 0
-1899 -1946 0
-1899 -1947 0
-1899 -1948 0
-1899 -1949 0
-1899 -1950 0
-1899 -1951 0
-1899 -1952 0
-1899 -1953 0
-1899 -1954 0
-1899 -1955 0
-1899 -1956 0
-1899 -1957 0
-1899 -1958 0
-1899 -1959 0
-1899 -1960 0
-1899 -1961 0
-1899 -1962 0
-1899 -1963 0
-1899 -1964 0
-1899 -1965 0
-1899 -1966 0
-1899 -1967 0
-1900 -1901 0
-1900 -1902 0
-1900 -1903 0
-1900 -1904 0
-1900 -1905 0
-1900 -1906 0
-1900 -1907 0
-1900 -1908 0
-1900 -1909 0
-1900 -1910 0
-1900 -1911 0
-1900 -1912 0
-1900 -1913 0
-1900 -1914 0
-1900 -1915 0
-1900 -1916 0
-1900 -1917 0
-1900 -1918 0
-1900 -1919 0
-1900 -1920 0
-1900 -1921 0
-1900 -1922 0
-1900 -1923 0
-1900 -1924 0
-1900 -1925 0
-1900 -1926 0
-1900 -1927 0
-1900 -1928 0
-1900 -1929 0
-1900 -1930 0
-1900 -1931 0
-1900 -1932 0
-1900 -1933 0
-1900 -1934 0
-1900 -1935 0
-1900 -1936 0
-1900 -1937 0
-1900 -1938 0
-1900 -1939 0
-1900 -1940 0
-1900 -1941 0
-1900 -1942 0
-1900 -1943 0
-1900 -1944 0
-1900 -1945 0
-1900 -1946 0
-1900 -1947 0
-1900 -1948 0
-1900 -1949 0
-1900 -1950 0
-1900 -1951 0
-1900 -1952 0
-1900 -1953 0
-1900 -1954 0
-1900 -1955 0
-1900 -1956 0
-1900 -1957 0
-1900 -1958 0
-1900 -1959 0
-1900 -1960 0
-1900 -1961 0
-1900 -1962 0
-1900 -1963 0
-1900 -1964 0
-1900 -1965 0
-1900 -1966 0
-1900 -1967 0
-1901 -1902 0
-1901 -1903 0
-1901 -1904 0
-1901 -1905 0
-1901 -1906 0
-1901 -1907 0
-1901 -1908 0
-1901 -1909 0
-1901 -1910 0
-1901 -1911 0
-1901 -1912 0
-1901 -1913 0
-1901 -1914 0
-1901 -1915 0
-1901 -1916 0
-1901 -1917 0
-1901 -1918 0
-1901 -1919 0
-1901 -1920 0
-1901 -1921 0
-1901 -1922 0
-1901 -1923 0
-1901 -1924 0
-1901 -1925 0
-1901 -1926 0
-1901 -1927 0
-1901 -1928 0
-1901 -1929 0
-1901 -1930 0
-1901 -1931 0
-1901 -1932 0
-1901 -1933 0
-1901 -1934 0
-1901 -1935 0
-1901 -1936 0
-1901 -1937 0
-1901 -1938 0
-1901 -1939 0
-1901 -1940 0
-1901 -1941 0
-1901 -1942 0
-1901 -1943 0
-1901 -1944 0
-1901 -1945 0
-1901 -1946 0
-1901 -1947 0
-1901 -1948 0
-1901 -1949 0
-1901 -1950 0
-1901 -1951 0
-1901 -1952 0
-1901 -1953 0
-1901 -1954 0
-1901 -1955 0
-1901 -1956 0
-1901 -1957 0
-1901 -1958 0
-1901 -1959 0
-1901 -1960 0
-1901 -1961 0
-1901 -1962 0
-1901 -1963 0
-1901 -1964 0
-1901 -1965 0
-1901 -1966 0
-1901 -1967 0
-1902 -1903 0
-1902 -1904 0
-1902 -1905 0
-1902 -1906 0
-1902 -1907 0
-1902 -1908 0
-1902 -1909 0
-1902 -1910 0
-1902 -1911 0
-1902 -1912 0
-1902 -1913 0
-1902 -1914 0
-1902 -1915 0
-1902 -1916 0
-1902 -1917 0
-1902 -1918 0
-1902 -1919 0
-1902 -1920 0
-1902 -1921 0
-1902 -1922 0
-1902 -1923 0
-1902 -1924 0
-1902 -1925 0
-1902 -1926 0
-1902 -1927 0
-1902 -1928 0
-1902 -1929 0
-1902 -1930 0
-1902 -1931 0
-1902 -1932 0
-1902 -1933 0
-1902 -1934 0
-1902 -1935 0
-1902 -1936 0
-1902 -1937 0
-1902 -1938 0
-1902 -1939 0
-1902 -1940 0
-1902 -1941 0
-1902 -1942 0
-1902 -1943 0
-1902 -1944 0
-1902 -1945 0
-1902 -1946 0
-1902 -1947 0
-1902 -1948 0
-1902 -1949 0
-1902 -1950 0
-1902 -1951 0
-1902 -1952 0
-1902 -1953 0
-1902 -1954 0
-1902 -1955 0
-1902 -1956 0
-1902 -1957 0
-1902 -1958 0
-1902 -1959 0
-1902 -1960 0
-1902 -1961 0
-1902 -1962 0
-1902 -1963 0
-1902 -1964 0
-1902 -1965 0
-1902 -1966 0
-1902 -1967 0
-1903 -1904 0
-1903 -1905 0
-1903 -1906 0
-1903 -1907 0
-1903 -1908 0
-1903 -1909 0
-1903 -1910 0
-1903 -1911 0
-1903 -1912 0
-1903 -1913 0
-1903 -1914 0
-1903 -1915 0
-1903 -1916 0
-1903 -1917 0
-1903 -1918 0
-1903 -1919 0
-1903 -1920 0
-1903 -1921 0
-1903 -1922 0
-1903 -1923 0
-1903 -1924 0
-1903 -1925 0
-1903 -1926 0
-1903 -1927 0
-1903 -1928 0
-1903 -1929 0
-1903 -1930 0
-1903 -1931 0
-1903 -1932 0
-1903 -1933 0
-1903 -1934 0
-1903 -1935 0
-1903 -1936 0
-1903 -1937 0
-1903 -1938 0
-1903 -1939 0
-1903 -1940 0
-1903 -1941 0
-1903 -1942 0
-1903 -1943 0
-1903 -1944 0
-1903 -1945 0
-1903 -1946 0
-1903 -1947 0
-1903 -1948 0
-1903 -1949 0
-1903 -1950 0
-1903 -1951 0
-1903 -1952 0
-1903 -1953 0
-1903 -1954 0
-1903 -1955 0
-1903 -1956 0
-1903 -1957 0
-1903 -1958 0
-1903 -1959 0
-1903 -1960 0
-1903 -1961 0
-1903 -1962 0
-1903 -1963 0
-1903 -1964 0
-1903 -1965 0
-1903 -1966 0
-1903 -1967 0
-1904 -1905 0
-1904 -1906 0
-1904 -1907 0
-1904 -1908 0
-1904 -1909 0
-1904 -1910 0
-1904 -1911 0
-1904 -1912 0
-1904 -1913 0
-1904 -1914 0
-1904 -1915 0
-1904 -1916 0
-1904 -1917 0
-1904 -1918 0
-1904 -1919 0
-1904 -1920 0
-1904 -1921 0
-1904 -1922 0
-1904 -1923 0
-1904 -1924 0
-1904 -1925 0
-1904 -1926 0
-1904 -1927 0
-1904 -1928 0
-1904 -1929 0
-1904 -1930 0
-1904 -1931 0
-1904 -1932 0
-1904 -1933 0
-1904 -1934 0
-1904 -1935 0
-1904 -1936 0
-1904 -1937 0
-1904 -1938 0
-1904 -1939 0
-1904 -1940 0
-1904 -1941 0
-1904 -1942 0
-1904 -1943 0
-1904 -1944 0
-1904 -1945 0
-1904 -1946 0
-1904 -1947 0
-1904 -1948 0
-1904 -1949 0
-1904 -1950 0
-1904 -1951 0
-1904 -1952 0
-1904 -1953 0
-1904 -1954 0
-1904 -1955 0
-1904 -1956 0
-1904 -1957 0
-1904 -1958 0
-1904 -1959 0
-1904 -1960 0
-1904 -1961 0
-1904 -1962 0
-1904 -1963 0
-1904 -1964 0
-1904 -1965 0
-1904 -1966 0
-1904 -1967 0
-1905 -1906 0
-1905 -1907 0
-1905 -1908 0
-1905 -1909 0
-1905 -1910 0
-1905 -1911 0
-1905 -1912 0
-1905 -1913 0
-1905 -1914 0
-1905 -1915 0
-1905 -1916 0
-1905 -1917 0
-1905 -1918 0
-1905 -1919 0
-1905 -1920 0
-1905 -1921 0
-1905 -1922 0
-1905 -1923 0
-1905 -1924 0
-1905 -1925 0
-1905 -1926 0
-1905 -1927 0
-1905 -1928 0
-1905 -1929 0
-1905 -1930 0
-1905 -1931 0
-1905 -1932 0
-1905 -1933 0
-1905 -1934 0
-1905 -1935 0
-1905 -1936 0
-1905 -1937 0
-1905 -1938 0
-1905 -1939 0
-1905 -1940 0
-1905 -1941 0
-1905 -1942 0
-1905 -1943 0
-1905 -1944 0
-1905 -1945 0
-1905 -1946 0
-1905 -1947 0
-1905 -1948 0
-1905 -1949 0
-1905 -1950 0
-1905 -1951 0
-1905 -1952 0
-1905 -1953 0
-1905 -1954 0
-1905 -1955 0
-1905 -1956 0
-1905 -1957 0
-1905 -1958 0
-1905 -1959 0
-1905 -1960 0
-1905 -1961 0
-1905 -1962 0
-1905 -1963 0
-1905 -1964 0
-1905 -1965 0
-1905 -1966 0
-1905 -1967 0
-1906 -1907 0
-1906 -1908 0
-1906 -1909 0
-1906 -1910 0
-1906 -1911 0
-1906 -1912 0
-1906 -1913 0
-1906 -1914 0
-1906 -1915 0
-1906 -1916 0
-1906 -1917 0
-1906 -1918 0
-1906 -1919 0
-1906 -1920 0
-1906 -1921 0
-1906 -1922 0
-1906 -1923 0
-1906 -1924 0
-1906 -1925 0
-1906 -1926 0
-1906 -1927 0
-1906 -1928 0
-1906 -1929 0
-1906 -1930 0
-1906 -1931 0
-1906 -1932 0
-1906 -1933 0
-1906 -1934 0
-1906 -1935 0
-1906 -1936 0
-1906 -1937 0
-1906 -1938 0
-1906 -1939 0
-1906 -1940 0
-1906 -1941 0
-1906 -1942 0
-1906 -1943 0
-1906 -1944 0
-1906 -1945 0
-1906 -1946 0
-1906 -1947 0
-1906 -1948 0
-1906 -1949 0
-1906 -1950 0
-1906 -1951 0
-1906 -1952 0
-1906 -1953 0
-1906 -1954 0
-1906 -1955 0
-1906 -1956 0
-1906 -1957 0
-1906 -1958 0
-1906 -1959 0
-1906 -1960 0
-1906 -1961 0
-1906 -1962 0
-1906 -1963 0
-1906 -1964 0
-1906 -1965 0
-1906 -1966 0
-1906 -1967 0
-1907 -1908 0
-1907 -1909 0
-1907 -1910 0
-1907 -1911 0
-1907 -1912 0
-1907 -1913 0
-1907 -1914 0
-1907 -1915 0
-1907 -1916 0
-1907 -1917 0
-1907 -1918 0
-1907 -1919 0
-1907 -1920 0
-1907 -1921 0
-1907 -1922 0
-1907 -1923 0
-1907 -1924 0
-1907 -1925 0
-1907 -1926 0
-1907 -1927 0
-1907 -1928 0
-1907 -1929 0
-1907 -1930 0
-1907 -1931 0
-1907 -1932 0
-1907 -1933 0
-1907 -1934 0
-1907 -1935 0
-1907 -1936 0
-1907 -1937 0
-1907 -1938 0
-1907 -1939 0
-1907 -1940 0
-1907 -1941 0
-1907 -1942 0
-1907 -1943 0
-1907 -1944 0
-1907 -1945 0
-1907 -1946 0
-1907 -1947 0
-1907 -1948 0
-1907 -1949 0
-1907 -1950 0
-1907 -1951 0
-1907 -1952 0
-1907 -1953 0
-1907 -1954 0
-1907 -1955 0
-1907 -1956 0
-1907 -1957 0
-1907 -1958 0
-1907 -1959 0
-1907 -1960 0
-1907 -1961 0
-1907 -1962 0
-1907 -1963 0
-1907 -1964 0
-1907 -1965 0
-1907 -1966 0
-1907 -1967 0
-1908 -1909 0
-1908 -1910 0
-1908 -1911 0
-1908 -1912 0
-1908 -1913 0
-1908 -1914 0
-1908 -1915 0
-1908 -1916 0
-1908 -1917 0
-1908 -1918 0
-1908 -1919 0
-1908 -1920 0
-1908 -1921 0
-1908 -1922 0
-1908 -1923 0
-1908 -1924 0
-1908 -1925 0
-1908 -1926 0
-1908 -1927 0
-1908 -1928 0
-1908 -1929 0
-1908 -1930 0
-1908 -1931 0
-1908 -1932 0
-1908 -1933 0
-1908 -1934 0
-1908 -1935 0
-1908 -1936 0
-1908 -1937 0
-1908 -1938 0
-1908 -1939 0
-1908 -1940 0
-1908 -1941 0
-1908 -1942 0
-1908 -1943 0
-1908 -1944 0
-1908 -1945 0
-1908 -1946 0
-1908 -1947 0
-1908 -1948 0
-1908 -1949 0
-1908 -1950 0
-1908 -1951 0
-1908 -1952 0
-1908 -1953 0
-1908 -1954 0
-1908 -1955 0
-1908 -1956 0
-1908 -1957 0
-1908 -1958 0
-1908 -1959 0
-1908 -1960 0
-1908 -1961 0
-1908 -1962 0
-1908 -1963 0
-1908 -1964 0
-1908 -1965 0
-1908 -1966 0
-1908 -1967 0
-1909 -1910 0
-1909 -1911 0
-1909 -1912 0
-1909 -1913 0
-1909 -1914 0
-1909 -1915 0
-1909 -1916 0
-1909 -1917 0
-1909 -1918 0
-1909 -1919 0
-1909 -1920 0
-1909 -1921 0
-1909 -1922 0
-1909 -1923 0
-1909 -1924 0
-1909 -1925 0
-1909 -1926 0
-1909 -1927 0
-1909 -1928 0
-1909 -1929 0
-1909 -1930 0
-1909 -1931 0
-1909 -1932 0
-1909 -1933 0
-1909 -1934 0
-1909 -1935 0
-1909 -1936 0
-1909 -1937 0
-1909 -1938 0
-1909 -1939 0
-1909 -1940 0
-1909 -1941 0
-1909 -1942 0
-1909 -1943 0
-1909 -1944 0
-1909 -1945 0
-1909 -1946 0
-1909 -1947 0
-1909 -1948 0
-1909 -1949 0
-1909 -1950 0
-1909 -1951 0
-1909 -1952 0
-1909 -1953 0
-1909 -1954 0
-1909 -1955 0
-1909 -1956 0
-1909 -1957 0
-1909 -1958 0
-1909 -1959 0
-1909 -1960 0
-1909 -1961 0
-1909 -1962 0
-1909 -1963 0
-1909 -1964 0
-1909 -1965 0
-1909 -1966 0
-1909 -1967 0
-1910 -1911 0
-1910 -1912 0
-1910 -1913 0
-1910 -1914 0
-1910 -1915 0
-1910 -1916 0
-1910 -1917 0
-1910 -1918 0
-1910 -1919 0
-1910 -1920 0
-1910 -1921 0
-1910 -1922 0
-1910 -1923 0
-1910 -1924 0
-1910 -1925 0
-1910 -1926 0
-1910 -1927 0
-1910 -1928 0
-1910 -1929 0
-1910 -1930 0
-1910 -1931 0
-1910 -1932 0
-1910 -1933 0
-1910 -1934 0
-1910 -1935 0
-1910 -1936 0
-1910 -1937 0
-1910 -1938 0
-1910 -1939 0
-1910 -1940 0
-1910 -1941 0
-1910 -1942 0
-1910 -1943 0
-1910 -1944 0
-1910 -1945 0
-1910 -1946 0
-1910 -1947 0
-1910 -1948 0
-1910 -1949 0
-1910 -1950 0
-1910 -1951 0
-1910 -1952 0
-1910 -1953 0
-1910 -1954 0
-1910 -1955 0
-1910 -1956 0
-1910 -1957 0
-1910 -1958 0
-1910 -1959 0
-1910 -1960 0
-1910 -1961 0
-1910 -1962 0
-1910 -1963 0
-1910 -1964 0
-1910 -1965 0
-1910 -1966 0
-1910 -1967 0
-1911 -1912 0
-1911 -1913 0
-1911 -1914 0
-1911 -1915 0
-1911 -1916 0
-1911 -1917 0
-1911 -1918 0
-1911 -1919 0
-1911 -1920 0
-1911 -1921 0
-1911 -1922 0
-1911 -1923 0
-1911 -1924 0
-1911 -1925 0
-1911 -1926 0
-1911 -1927 0
-1911 -1928 0
-1911 -1929 0
-1911 -1930 0
-1911 -1931 0
-1911 -1932 0
-1911 -1933 0
-1911 -1934 0
-1911 -1935 0
-1911 -1936 0
-1911 -1937 0
-1911 -1938 0
-1911 -1939 0
-1911 -1940 0
-1911 -1941 0
-1911 -1942 0
-1911 -1943 0
-1911 -1944 0
-1911 -1945 0
-1911 -1946 0
-1911 -1947 0
-1911 -1948 0
-1911 -1949 0
-1911 -1950 0
-1911 -1951 0
-1911 -1952 0
-1911 -1953 0
-1911 -1954 0
-1911 -1955 0
-1911 -1956 0
-1911 -1957 0
-1911 -1958 0
-1911 -1959 0
-1911 -1960 0
-1911 -1961 0
-1911 -1962 0
-1911 -1963 0
-1911 -1964 0
-1911 -1965 0
-1911 -1966 0
-1911 -1967 0
-1912 -1913 0
-1912 -1914 0
-1912 -1915 0
-1912 -1916 0
-1912 -1917 0
-1912 -1918 0
-1912 -1919 0
-1912 -1920 0
-1912 -1921 0
-1912 -1922 0
-1912 -1923 0
-1912 -1924 0
-1912 -1925 0
-1912 -1926 0
-1912 -1927 0
-1912 -1928 0
-1912 -1929 0
-1912 -1930 0
-1912 -1931 0
-1912 -1932 0
-1912 -1933 0
-1912 -1934 0
-1912 -1935 0
-1912 -1936 0
-1912 -1937 0
-1912 -1938 0
-1912 -1939 0
-1912 -1940 0
-1912 -1941 0
-1912 -1942 0
-1912 -1943 0
-1912 -1944 0
-1912 -1945 0
-1912 -1946 0
-1912 -1947 0
-1912 -1948 0
-1912 -1949 0
-1912 -1950 0
-1912 -1951 0
-1912 -1952 0
-1912 -1953 0
-1912 -1954 0
-1912 -1955 0
-1912 -1956 0
-1912 -1957 0
-1912 -1958 0
-1912 -1959 0
-1912 -1960 0
-1912 -1961 0
-1912 -1962 0
-1912 -1963 0
-1912 -1964 0
-1912 -1965 0
-1912 -1966 0
-1912 -1967 0
-1913 -1914 0
-1913 -1915 0
-1913 -1916 0
-1913 -1917 0
-1913 -1918 0
-1913 -1919 0
-1913 -1920 0
-1913 -1921 0
-1913 -1922 0
-1913 -1923 0
-1913 -1924 0
-1913 -1925 0
-1913 -1926 0
-1913 -1927 0
-1913 -1928 0
-1913 -1929 0
-1913 -1930 0
-1913 -1931 0
-1913 -1932 0
-1913 -1933 0
-1913 -1934 0
-1913 -1935 0
-1913 -1936 0
-1913 -1937 0
-1913 -1938 0
-1913 -1939 0
-1913 -1940 0
-1913 -1941 0
-1913 -1942 0
-1913 -1943 0
-1913 -1944 0
-1913 -1945 0
-1913 -1946 0
-1913 -1947 0
-1913 -1948 0
-1913 -1949 0
-1913 -1950 0
-1913 -1951 0
-1913 -1952 0
-1913 -1953 0
-1913 -1954 0
-1913 -1955 0
-1913 -1956 0
-1913 -1957 0
-1913 -1958 0
-1913 -1959 0
-1913 -1960 0
-1913 -1961 0
-1913 -1962 0
-1913 -1963 0
-1913 -1964 0
-1913 -1965 0
-1913 -1966 0
-1913 -1967 0
-1914 -1915 0
-1914 -1916 0
-1914 -1917 0
-1914 -1918 0
-1914 -1919 0
-1914 -1920 0
-1914 -1921 0
-1914 -1922 0
-1914 -1923 0
-1914 -1924 0
-1914 -1925 0
-1914 -1926 0
-1914 -1927 0
-1914 -1928 0
-1914 -1929 0
-1914 -1930 0
-1914 -1931 0
-1914 -1932 0
-1914 -1933 0
-1914 -1934 0
-1914 -1935 0
-1914 -1936 0
-1914 -1937 0
-1914 -1938 0
-1914 -1939 0
-1914 -1940 0
-1914 -1941 0
-1914 -1942 0
-1914 -1943 0
-1914 -1944 0
-1914 -1945 0
-1914 -1946 0
-1914 -1947 0
-1914 -1948 0
-1914 -1949 0
-1914 -1950 0
-1914 -1951 0
-1914 -1952 0
-1914 -1953 0
-1914 -1954 0
-1914 -1955 0
-1914 -1956 0
-1914 -1957 0
-1914 -1958 0
-1914 -1959 0
-1914 -1960 0
-1914 -1961 0
-1914 -1962 0
-1914 -1963 0
-1914 -1964 0
-1914 -1965 0
-1914 -1966 0
-1914 -1967 0
-1915 -1916 0
-1915 -1917 0
-1915 -1918 0
-1915 -1919 0
-1915 -1920 0
-1915 -1921 0
-1915 -1922 0
-1915 -1923 0
-1915 -1924 0
-1915 -1925 0
-1915 -1926 0
-1915 -1927 0
-1915 -1928 0
-1915 -1929 0
-1915 -1930 0
-1915 -1931 0
-1915 -1932 0
-1915 -1933 0
-1915 -1934 0
-1915 -1935 0
-1915 -1936 0
-1915 -1937 0
-1915 -1938 0
-1915 -1939 0
-1915 -1940 0
-1915 -1941 0
-1915 -1942 0
-1915 -1943 0
-1915 -1944 0
-1915 -1945 0
-1915 -1946 0
-1915 -1947 0
-1915 -1948 0
-1915 -1949 0
-1915 -1950 0
-1915 -1951 0
-1915 -1952 0
-1915 -1953 0
-1915 -1954 0
-1915 -1955 0
-1915 -1956 0
-1915 -1957 0
-1915 -1958 0
-1915 -1959 0
-1915 -1960 0
-1915 -1961 0
-1915 -1962 0
-1915 -1963 0
-1915 -1964 0
-1915 -1965 0
-1915 -1966 0
-1915 -1967 0
-1916 -1917 0
-1916 -1918 0
-1916 -1919 0
-1916 -1920 0
-1916 -1921 0
-1916 -1922 0
-1916 -1923 0
-1916 -1924 0
-1916 -1925 0
-1916 -1926 0
-1916 -1927 0
-1916 -1928 0
-1916 -1929 0
-1916 -1930 0
-1916 -1931 0
-1916 -1932 0
-1916 -1933 0
-1916 -1934 0
-1916 -1935 0
-1916 -1936 0
-1916 -1937 0
-1916 -1938 0
-1916 -1939 0
-1916 -1940 0
-1916 -1941 0
-1916 -1942 0
-1916 -1943 0
-1916 -1944 0
-1916 -1945 0
-1916 -1946 0
-1916 -1947 0
-1916 -1948 0
-1916 -1949 0
-1916 -1950 0
-1916 -1951 0
-1916 -1952 0
-1916 -1953 0
-1916 -1954 0
-1916 -1955 0
-1916 -1956 0
-1916 -1957 0
-1916 -1958 0
-1916 -1959 0
-1916 -1960 0
-1916 -1961 0
-1916 -1962 0
-1916 -1963 0
-1916 -1964 0
-1916 -1965 0
-1916 -1966 0
-1916 -1967 0
-1917 -1918 0
-1917 -1919 0
-1917 -1920 0
-1917 -1921 0
-1917 -1922 0
-1917 -1923 0
-1917 -1924 0
-1917 -1925 0
-1917 -1926 0
-1917 -1927 0
-1917 -1928 0
-1917 -1929 0
-1917 -1930 0
-1917 -1931 0
-1917 -1932 0
-1917 -1933 0
-1917 -1934 0
-1917 -1935 0
-1917 -1936 0
-1917 -1937 0
-1917 -1938 0
-1917 -1939 0
-1917 -1940 0
-1917 -1941 0
-1917 -1942 0
-1917 -1943 0
-1917 -1944 0
-1917 -1945 0
-1917 -1946 0
-1917 -1947 0
-1917 -1948 0
-1917 -1949 0
-1917 -1950 0
-1917 -1951 0
-1917 -1952 0
-1917 -1953 0
-1917 -1954 0
-1917 -1955 0
-1917 -1956 0
-1917 -1957 0
-1917 -1958 0
-1917 -1959 0
-1917 -1960 0
-1917 -1961 0
-1917 -1962 0
-1917 -1963 0
-1917 -1964 0
-1917 -1965 0
-1917 -1966 0
-1917 -1967 0
-1918 -1919 0
-1918 -1920 0
-1918 -1921 0
-1918 -1922 0
-1918 -1923 0
-1918 -1924 0
-1918 -1925 0
-1918 -1926 0
-1918 -1927 0
-1918 -1928 0
-1918 -1929 0
-1918 -1930 0
-1918 -1931 0
-1918 -1932 0
-1918 -1933 0
-1918 -1934 0
-1918 -1935 0
-1918 -1936 0
-1918 -1937 0
-1918 -1938 0
-1918 -1939 0
-1918 -1940 0
-1918 -1941 0
-1918 -1942 0
-1918 -1943 0
-1918 -1944 0
-1918 -1945 0
-1918 -1946 0
-1918 -1947 0
-1918 -1948 0
-1918 -1949 0
-1918 -1950 0
-1918 -1951 0
-1918 -1952 0
-1918 -1953 0
-1918 -1954 0
-1918 -1955 0
-1918 -1956 0
-1918 -1957 0
-1918 -1958 0
-1918 -1959 0
-1918 -1960 0
-1918 -1961 0
-1918 -1962 0
-1918 -1963 0
-1918 -1964 0
-1918 -1965 0
-1918 -1966 0
-1918 -1967 0
-1919 -1920 0
-1919 -1921 0
-1919 -1922 0
-1919 -1923 0
-1919 -1924 0
-1919 -1925 0
-1919 -1926 0
-1919 -1927 0
-1919 -1928 0
-1919 -1929 0
-1919 -1930 0
-1919 -1931 0
-1919 -1932 0
-1919 -1933 0
-1919 -1934 0
-1919 -1935 0
-1919 -1936 0
-1919 -1937 0
-1919 -1938 0
-1919 -1939 0
-1919 -1940 0
-1919 -1941 0
-1919 -1942 0
-1919 -1943 0
-1919 -1944 0
-1919 -1945 0
-1919 -1946 0
-1919 -1947 0
-1919 -1948 0
-1919 -1949 0
-1919 -1950 0
-1919 -1951 0
-1919 -1952 0
-1919 -1953 0
-1919 -1954 0
-1919 -1955 0
-1919 -1956 0
-1919 -1957 0
-1919 -1958 0
-1919 -1959 0
-1919 -1960 0
-1919 -1961 0
-1919 -1962 0
-1919 -1963 0
-1919 -1964 0
-1919 -1965 0
-1919 -1966 0
-1919 -1967 0
-1920 -1921 0
-1920 -1922 0
-1920 -1923 0
-1920 -1924 0
-1920 -1925 0
-1920 -1926 0
-1920 -1927 0
-1920 -1928 0
-1920 -1929 0
-1920 -1930 0
-1920 -1931 0
-1920 -1932 0
-1920 -1933 0
-1920 -1934 0
-1920 -1935 0
-1920 -1936 0
-1920 -1937 0
-1920 -1938 0
-1920 -1939 0
-1920 -1940 0
-1920 -1941 0
-1920 -1942 0
-1920 -1943 0
-1920 -1944 0
-1920 -1945 0
-1920 -1946 0
-1920 -1947 0
-1920 -1948 0
-1920 -1949 0
-1920 -1950 0
-1920 -1951 0
-1920 -1952 0
-1920 -1953 0
-1920 -1954 0
-1920 -1955 0
-1920 -1956 0
-1920 -1957 0
-1920 -1958 0
-1920 -1959 0
-1920 -1960 0
-1920 -1961 0
-1920 -1962 0
-1920 -1963 0
-1920 -1964 0
-1920 -1965 0
-1920 -1966 0
-1920 -1967 0
-1921 -1922 0
-1921 -1923 0
-1921 -1924 0
-1921 -1925 0
-1921 -1926 0
-1921 -1927 0
-1921 -1928 0
-1921 -1929 0
-1921 -1930 0
-1921 -1931 0
-1921 -1932 0
-1921 -1933 0
-1921 -1934 0
-1921 -1935 0
-1921 -1936 0
-1921 -1937 0
-1921 -1938 0
-1921 -1939 0
-1921 -1940 0
-1921 -1941 0
-1921 -1942 0
-1921 -1943 0
-1921 -1944 0
-1921 -1945 0
-1921 -1946 0
-1921 -1947 0
-1921 -1948 0
-1921 -1949 0
-1921 -1950 0
-1921 -1951 0
-1921 -1952 0
-1921 -1953 0
-1921 -1954 0
-1921 -1955 0
-1921 -1956 0
-1921 -1957 0
-1921 -1958 0
-1921 -1959 0
-1921 -1960 0
-1921 -1961 0
-1921 -1962 0
-1921 -1963 0
-1921 -1964 0
-1921 -1965 0
-1921 -1966 0
-1921 -1967 0
-1922 -1923 0
-1922 -1924 0
-1922 -1925 0
-1922 -1926 0
-1922 -1927 0
-1922 -1928 0
-1922 -1929 0
-1922 -1930 0
-1922 -1931 0
-1922 -1932 0
-1922 -1933 0
-1922 -1934 0
-1922 -1935 0
-1922 -1936 0
-1922 -1937 0
-1922 -1938 0
-1922 -1939 0
-1922 -1940 0
-1922 -1941 0
-1922 -1942 0
-1922 -1943 0
-1922 -1944 0
-1922 -1945 0
-1922 -1946 0
-1922 -1947 0
-1922 -1948 0
-1922 -1949 0
-1922 -1950 0
-1922 -1951 0
-1922 -1952 0
-1922 -1953 0
-1922 -1954 0
-1922 -1955 0
-1922 -1956 0
-1922 -1957 0
-1922 -1958 0
-1922 -1959 0
-1922 -1960 0
-1922 -1961 0
-1922 -1962 0
-1922 -1963 0
-1922 -1964 0
-1922 -1965 0
-1922 -1966 0
-1922 -1967 0
-1923 -1924 0
-1923 -1925 0
-1923 -1926 0
-1923 -1927 0
-1923 -1928 0
-1923 -1929 0
-1923 -1930 0
-1923 -1931 0
-1923 -1932 0
-1923 -1933 0
-1923 -1934 0
-1923 -1935 0
-1923 -1936 0
-1923 -1937 0
-1923 -1938 0
-1923 -1939 0
-1923 -1940 0
-1923 -1941 0
-1923 -1942 0
-1923 -1943 0
-1923 -1944 0
-1923 -1945 0
-1923 -1946 0
-1923 -1947 0
-1923 -1948 0
-1923 -1949 0
-1923 -1950 0
-1923 -1951 0
-1923 -1952 0
-1923 -1953 0
-1923 -1954 0
-1923 -1955 0
-1923 -1956 0
-1923 -1957 0
-1923 -1958 0
-1923 -1959 0
-1923 -1960 0
-1923 -1961 0
-1923 -1962 0
-1923 -1963 0
-1923 -1964 0
-1923 -1965 0
-1923 -1966 0
-1923 -1967 0
-1924 -1925 0
-1924 -1926 0
-1924 -1927 0
-1924 -1928 0
-1924 -1929 0
-1924 -1930 0
-1924 -1931 0
-1924 -1932 0
-1924 -1933 0
-1924 -1934 0
-1924 -1935 0
-1924 -1936 0
-1924 -1937 0
-1924 -1938 0
-1924 -1939 0
-1924 -1940 0
-1924 -1941 0
-1924 -1942 0
-1924 -1943 0
-1924 -1944 0
-1924 -1945 0
-1924 -1946 0
-1924 -1947 0
-1924 -1948 0
-1924 -1949 0
-1924 -1950 0
-1924 -1951 0
-1924 -1952 0
-1924 -1953 0
-1924 -1954 0
-1924 -1955 0
-1924 -1956 0
-1924 -1957 0
-1924 -1958 0
-1924 -1959 0
-1924 -1960 0
-1924 -1961 0
-1924 -1962 0
-1924 -1963 0
-1924 -1964 0
-1924 -1965 0
-1924 -1966 0
-1924 -1967 0
-1925 -1926 0
-1925 -1927 0
-1925 -1928 0
-1925 -1929 0
-1925 -1930 0
-1925 -1931 0
-1925 -1932 0
-1925 -1933 0
-1925 -1934 0
-1925 -1935 0
-1925 -1936 0
-1925 -1937 0
-1925 -1938 0
-1925 -1939 0
-1925 -1940 0
-1925 -1941 0
-1925 -1942 0
-1925 -1943 0
-1925 -1944 0
-1925 -1945 0
-1925 -1946 0
-1925 -1947 0
-1925 -1948 0
-1925 -1949 0
-1925 -1950 0
-1925 -1951 0
-1925 -1952 0
-1925 -1953 0
-1925 -1954 0
-1925 -1955 0
-1925 -1956 0
-1925 -1957 0
-1925 -1958 0
-1925 -1959 0
-1925 -1960 0
-1925 -1961 0
-1925 -1962 0
-1925 -1963 0
-1925 -1964 0
-1925 -1965 0
-1925 -1966 0
-1925 -1967 0
-1926 -1927 0
-1926 -1928 0
-1926 -1929 0
-1926 -1930 0
-1926 -1931 0
-1926 -1932 0
-1926 -1933 0
-1926 -1934 0
-1926 -1935 0
-1926 -1936 0
-1926 -1937 0
-1926 -1938 0
-1926 -1939 0
-1926 -1940 0
-1926 -1941 0
-1926 -1942 0
-1926 -1943 0
-1926 -1944 0
-1926 -1945 0
-1926 -1946 0
-1926 -1947 0
-1926 -1948 0
-1926 -1949 0
-1926 -1950 0
-1926 -1951 0
-1926 -1952 0
-1926 -1953 0
-1926 -1954 0
-1926 -1955 0
-1926 -1956 0
-1926 -1957 0
-1926 -1958 0
-1926 -1959 0
-1926 -1960 0
-1926 -1961 0
-1926 -1962 0
-1926 -1963 0
-1926 -1964 0
-1926 -1965 0
-1926 -1966 0
-1926 -1967 0
-1927 -1928 0
-1927 -1929 0
-1927 -1930 0
-1927 -1931 0
-1927 -1932 0
-1927 -1933 0
-1927 -1934 0
-1927 -1935 0
-1927 -1936 0
-1927 -1937 0
-1927 -1938 0
-1927 -1939 0
-1927 -1940 0
-1927 -1941 0
-1927 -1942 0
-1927 -1943 0
-1927 -1944 0
-1927 -1945 0
-1927 -1946 0
-1927 -1947 0
-1927 -1948 0
-1927 -1949 0
-1927 -1950 0
-1927 -1951 0
-1927 -1952 0
-1927 -1953 0
-1927 -1954 0
-1927 -1955 0
-1927 -1956 0
-1927 -1957 0
-1927 -1958 0
-1927 -1959 0
-1927 -1960 0
-1927 -1961 0
-1927 -1962 0
-1927 -1963 0
-1927 -1964 0
-1927 -1965 0
-1927 -1966 0
-1927 -1967 0
-1928 -1929 0
-1928 -1930 0
-1928 -1931 0
-1928 -1932 0
-1928 -1933 0
-1928 -1934 0
-1928 -1935 0
-1928 -1936 0
-1928 -1937 0
-1928 -1938 0
-1928 -1939 0
-1928 -1940 0
-1928 -1941 0
-1928 -1942 0
-1928 -1943 0
-1928 -1944 0
-1928 -1945 0
-1928 -1946 0
-1928 -1947 0
-1928 -1948 0
-1928 -1949 0
-1928 -1950 0
-1928 -1951 0
-1928 -1952 0
-1928 -1953 0
-1928 -1954 0
-1928 -1955 0
-1928 -1956 0
-1928 -1957 0
-1928 -1958 0
-1928 -1959 0
-1928 -1960 0
-1928 -1961 0
-1928 -1962 0
-1928 -1963 0
-1928 -1964 0
-1928 -1965 0
-1928 -1966 0
-1928 -1967 0
-1929 -1930 0
-1929 -1931 0
-1929 -1932 0
-1929 -1933 0
-1929 -1934 0
-1929 -1935 0
-1929 -1936 0
-1929 -1937 0
-1929 -1938 0
-1929 -1939 0
-1929 -1940 0
-1929 -1941 0
-1929 -1942 0
-1929 -1943 0
-1929 -1944 0
-1929 -1945 0
-1929 -1946 0
-1929 -1947 0
-1929 -1948 0
-1929 -1949 0
-1929 -1950 0
-1929 -1951 0
-1929 -1952 0
-1929 -1953 0
-1929 -1954 0
-1929 -1955 0
-1929 -1956 0
-1929 -1957 0
-1929 -1958 0
-1929 -1959 0
-1929 -1960 0
-1929 -1961 0
-1929 -1962 0
-1929 -1963 0
-1929 -1964 0
-1929 -1965 0
-1929 -1966 0
-1929 -1967 0
-1930 -1931 0
-1930 -1932 0
-1930 -1933 0
-1930 -1934 0
-1930 -1935 0
-1930 -1936 0
-1930 -1937 0
-1930 -1938 0
-1930 -1939 0
-1930 -1940 0
-1930 -1941 0
-1930 -1942 0
-1930 -1943 0
-1930 -1944 0
-1930 -1945 0
-1930 -1946 0
-1930 -1947 0
-1930 -1948 0
-1930 -1949 0
-1930 -1950 0
-1930 -1951 0
-1930 -1952 0
-1930 -1953 0
-1930 -1954 0
-1930 -1955 0
-1930 -1956 0
-1930 -1957 0
-1930 -1958 0
-1930 -1959 0
-1930 -1960 0
-1930 -1961 0
-1930 -1962 0
-1930 -1963 0
-1930 -1964 0
-1930 -1965 0
-1930 -1966 0
-1930 -1967 0
-1931 -1932 0
-1931 -1933 0
-1931 -1934 0
-1931 -1935 0
-1931 -1936 0
-1931 -1937 0
-1931 -1938 0
-1931 -1939 0
-1931 -1940 0
-1931 -1941 0
-1931 -1942 0
-1931 -1943 0
-1931 -1944 0
-1931 -1945 0
-1931 -1946 0
-1931 -1947 0
-1931 -1948 0
-1931 -1949 0
-1931 -1950 0
-1931 -1951 0
-1931 -1952 0
-1931 -1953 0
-1931 -1954 0
-1931 -1955 0
-1931 -1956 0
-1931 -1957 0
-1931 -1958 0
-1931 -1959 0
-1931 -1960 0
-1931 -1961 0
-1931 -1962 0
-1931 -1963 0
-1931 -1964 0
-1931 -1965 0
-1931 -1966 0
-1931 -1967 0
-1932 -1933 0
-1932 -1934 0
-1932 -1935 0
-1932 -1936 0
-1932 -1937 0
-1932 -1938 0
-1932 -1939 0
-1932 -1940 0
-1932 -1941 0
-1932 -1942 0
-1932 -1943 0
-1932 -1944 0
-1932 -1945 0
-1932 -1946 0
-1932 -1947 0
-1932 -1948 0
-1932 -1949 0
-1932 -1950 0
-1932 -1951 0
-1932 -1952 0
-1932 -1953 0
-1932 -1954 0
-1932 -1955 0
-1932 -1956 0
-1932 -1957 0
-1932 -1958 0
-1932 -1959 0
-1932 -1960 0
-1932 -1961 0
-1932 -1962 0
-1932 -1963 0
-1932 -1964 0
-1932 -1965 0
-1932 -1966 0
-1932 -1967 0
-1933 -1934 0
-1933 -1935 0
-1933 -1936 0
-1933 -1937 0
-1933 -1938 0
-1933 -1939 0
-1933 -1940 0
-1933 -1941 0
-1933 -1942 0
-1933 -1943 0
-1933 -1944 0
-1933 -1945 0
-1933 -1946 0
-1933 -1947 0
-1933 -1948 0
-1933 -1949 0
-1933 -1950 0
-1933 -1951 0
-1933 -1952 0
-1933 -1953 0
-1933 -1954 0
-1933 -1955 0
-1933 -1956 0
-1933 -1957 0
-1933 -1958 0
-1933 -1959 0
-1933 -1960 0
-1933 -1961 0
-1933 -1962 0
-1933 -1963 0
-1933 -1964 0
-1933 -1965 0
-1933 -1966 0
-1933 -1967 0
-1934 -1935 0
-1934 -1936 0
-1934 -1937 0
-1934 -1938 0
-1934 -1939 0
-1934 -1940 0
-1934 -1941 0
-1934 -1942 0
-1934 -1943 0
-1934 -1944 0
-1934 -1945 0
-1934 -1946 0
-1934 -1947 0
-1934 -1948 0
-1934 -1949 0
-1934 -1950 0
-1934 -1951 0
-1934 -1952 0
-1934 -1953 0
-1934 -1954 0
-1934 -1955 0
-1934 -1956 0
-1934 -1957 0
-1934 -1958 0
-1934 -1959 0
-1934 -1960 0
-1934 -1961 0
-1934 -1962 0
-1934 -1963 0
-1934 -1964 0
-1934 -1965 0
-1934 -1966 0
-1934 -1967 0
-1935 -1936 0
-1935 -1937 0
-1935 -1938 0
-1935 -1939 0
-1935 -1940 0
-1935 -1941 0
-1935 -1942 0
-1935 -1943 0
-1935 -1944 0
-1935 -1945 0
-1935 -1946 0
-1935 -1947 0
-1935 -1948 0
-1935 -1949 0
-1935 -1950 0
-1935 -1951 0
-1935 -1952 0
-1935 -1953 0
-1935 -1954 0
-1935 -1955 0
-1935 -1956 0
-1935 -1957 0
-1935 -1958 0
-1935 -1959 0
-1935 -1960 0
-1935 -1961 0
-1935 -1962 0
-1935 -1963 0
-1935 -1964 0
-1935 -1965 0
-1935 -1966 0
-1935 -1967 0
-1936 -1937 0
-1936 -1938 0
-1936 -1939 0
-1936 -1940 0
-1936 -1941 0
-1936 -1942 0
-1936 -1943 0
-1936 -1944 0
-1936 -1945 0
-1936 -1946 0
-1936 -1947 0
-1936 -1948 0
-1936 -1949 0
-1936 -1950 0
-1936 -1951 0
-1936 -1952 0
-1936 -1953 0
-1936 -1954 0
-1936 -1955 0
-1936 -1956 0
-1936 -1957 0
-1936 -1958 0
-1936 -1959 0
-1936 -1960 0
-1936 -1961 0
-1936 -1962 0
-1936 -1963 0
-1936 -1964 0
-1936 -1965 0
-1936 -1966 0
-1936 -1967 0
-1937 -1938 0
-1937 -1939 0
-1937 -1940 0
-1937 -1941 0
-1937 -1942 0
-1937 -1943 0
-1937 -1944 0
-1937 -1945 0
-1937 -1946 0
-1937 -1947 0
-1937 -1948 0
-1937 -1949 0
-1937 -1950 0
-1937 -1951 0
-1937 -1952 0
-1937 -1953 0
-1937 -1954 0
-1937 -1955 0
-1937 -1956 0
-1937 -1957 0
-1937 -1958 0
-1937 -1959 0
-1937 -1960 0
-1937 -1961 0
-1937 -1962 0
-1937 -1963 0
-1937 -1964 0
-1937 -1965 0
-1937 -1966 0
-1937 -1967 0
-1938 -1939 0
-1938 -1940 0
-1938 -1941 0
-1938 -1942 0
-1938 -1943 0
-1938 -1944 0
-1938 -1945 0
-1938 -1946 0
-1938 -1947 0
-1938 -1948 0
-1938 -1949 0
-1938 -1950 0
-1938 -1951 0
-1938 -1952 0
-1938 -1953 0
-1938 -1954 0
-1938 -1955 0
-1938 -1956 0
-1938 -1957 0
-1938 -1958 0
-1938 -1959 0
-1938 -1960 0
-1938 -1961 0
-1938 -1962 0
-1938 -1963 0
-1938 -1964 0
-1938 -1965 0
-1938 -1966 0
-1938 -1967 0
-1939 -1940 0
-1939 -1941 0
-1939 -1942 0
-1939 -1943 0
-1939 -1944 0
-1939 -1945 0
-1939 -1946 0
-1939 -1947 0
-1939 -1948 0
-1939 -1949 0
-1939 -1950 0
-1939 -1951 0
-1939 -1952 0
-1939 -1953 0
-1939 -1954 0
-1939 -1955 0
-1939 -1956 0
-1939 -1957 0
-1939 -1958 0
-1939 -1959 0
-1939 -1960 0
-1939 -1961 0
-1939 -1962 0
-1939 -1963 0
-1939 -1964 0
-1939 -1965 0
-1939 -1966 0
-1939 -1967 0
-1940 -1941 0
-1940 -1942 0
-1940 -1943 0
-1940 -1944 0
-1940 -1945 0
-1940 -1946 0
-1940 -1947 0
-1940 -1948 0
-1940 -1949 0
-1940 -1950 0
-1940 -1951 0
-1940 -1952 0
-1940 -1953 0
-1940 -1954 0
-1940 -1955 0
-1940 -1956 0
-1940 -1957 0
-1940 -1958 0
-1940 -1959 0
-1940 -1960 0
-1940 -1961 0
-1940 -1962 0
-1940 -1963 0
-1940 -1964 0
-1940 -1965 0
-1940 -1966 0
-1940 -1967 0
-1941 -1942 0
-1941 -1943 0
-1941 -1944 0
-1941 -1945 0
-1941 -1946 0
-1941 -1947 0
-1941 -1948 0
-1941 -1949 0
-1941 -1950 0
-1941 -1951 0
-1941 -1952 0
-1941 -1953 0
-1941 -1954 0
-1941 -1955 0
-1941 -1956 0
-1941 -1957 0
-1941 -1958 0
-1941 -1959 0
-1941 -1960 0
-1941 -1961 0
-1941 -1962 0
-1941 -1963 0
-1941 -1964 0
-1941 -1965 0
-1941 -1966 0
-1941 -1967 0
-1942 -1943 0
-1942 -1944 0
-1942 -1945 0
-1942 -1946 0
-1942 -1947 0
-1942 -1948 0
-1942 -1949 0
-1942 -1950 0
-1942 -1951 0
-1942 -1952 0
-1942 -1953 0
-1942 -1954 0
-1942 -1955 0
-1942 -1956 0
-1942 -1957 0
-1942 -1958 0
-1942 -1959 0
-1942 -1960 0
-1942 -1961 0
-1942 -1962 0
-1942 -1963 0
-1942 -1964 0
-1942 -1965 0
-1942 -1966 0
-1942 -1967 0
-1943 -1944 0
-1943 -1945 0
-1943 -1946 0
-1943 -1947 0
-1943 -1948 0
-1943 -1949 0
-1943 -1950 0
-1943 -1951 0
-1943 -1952 0
-1943 -1953 0
-1943 -1954 0
-1943 -1955 0
-1943 -1956 0
-1943 -1957 0
-1943 -1958 0
-1943 -1959 0
-1943 -1960 0
-1943 -1961 0
-1943 -1962 0
-1943 -1963 0
-1943 -1964 0
-1943 -1965 0
-1943 -1966 0
-1943 -1967 0
-1944 -1945 0
-1944 -1946 0
-1944 -1947 0
-1944 -1948 0
-1944 -1949 0
-1944 -1950 0
-1944 -1951 0
-1944 -1952 0
-1944 -1953 0
-1944 -1954 0
-1944 -1955 0
-1944 -1956 0
-1944 -1957 0
-1944 -1958 0
-1944 -1959 0
-1944 -1960 0
-1944 -1961 0
-1944 -1962 0
-1944 -1963 0
-1944 -1964 0
-1944 -1965 0
-1944 -1966 0
-1944 -1967 0
-1945 -1946 0
-1945 -1947 0
-1945 -1948 0
-1945 -1949 0
-1945 -1950 0
-1945 -1951 0
-1945 -1952 0
-1945 -1953 0
-1945 -1954 0
-1945 -1955 0
-1945 -1956 0
-1945 -1957 0
-1945 -1958 0
-1945 -1959 0
-1945 -1960 0
-1945 -1961 0
-1945 -1962 0
-1945 -1963 0
-1945 -1964 0
-1945 -1965 0
-1945 -1966 0
-1945 -1967 0
-1946 -1947 0
-1946 -1948 0
-1946 -1949 0
-1946 -1950 0
-1946 -1951 0
-1946 -1952 0
-1946 -1953 0
-1946 -1954 0
-1946 -1955 0
-1946 -1956 0
-1946 -1957 0
-1946 -1958 0
-1946 -1959 0
-1946 -1960 0
-1946 -1961 0
-1946 -1962 0
-1946 -1963 0
-1946 -1964 0
-1946 -1965 0
-1946 -1966 0
-1946 -1967 0
-1947 -1948 0
-1947 -1949 0
-1947 -1950 0
-1947 -1951 0
-1947 -1952 0
-1947 -1953 0
-1947 -1954 0
-1947 -1955 0
-1947 -1956 0
-1947 -1957 0
-1947 -1958 0
-1947 -1959 0
-1947 -1960 0
-1947 -1961 0
-1947 -1962 0
-1947 -1963 0
-1947 -1964 0
-1947 -1965 0
-1947 -1966 0
-1947 -1967 0
-1948 -1949 0
-1948 -1950 0
-1948 -1951 0
-1948 -1952 0
-1948 -1953 0
-1948 -1954 0
-1948 -1955 0
-1948 -1956 0
-1948 -1957 0
-1948 -1958 0
-1948 -1959 0
-1948 -1960 0
-1948 -1961 0
-1948 -1962 0
-1948 -1963 0
-1948 -1964 0
-1948 -1965 0
-1948 -1966 0
-1948 -1967 0
-1949 -1950 0
-1949 -1951 0
-1949 -1952 0
-1949 -1953 0
-1949 -1954 0
-1949 -1955 0
-1949 -1956 0
-1949 -1957 0
-1949 -1958 0
-1949 -1959 0
-1949 -1960 0
-1949 -1961 0
-1949 -1962 0
-1949 -1963 0
-1949 -1964 0
-1949 -1965 0
-1949 -1966 0
-1949 -1967 0
-1950 -1951 0
-1950 -1952 0
-1950 -1953 0
-1950 -1954 0
-1950 -1955 0
-1950 -1956 0
-1950 -1957 0
-1950 -1958 0
-1950 -1959 0
-1950 -1960 0
-1950 -1961 0
-1950 -1962 0
-1950 -1963 0
-1950 -1964 0
-1950 -1965 0
-1950 -1966 0
-1950 -1967 0
-1951 -1952 0
-1951 -1953 0
-1951 -1954 0
-1951 -1955 0
-1951 -1956 0
-1951 -1957 0
-1951 -1958 0
-1951 -1959 0
-1951 -1960 0
-1951 -1961 0
-1951 -1962 0
-1951 -1963 0
-1951 -1964 0
-1951 -1965 0
-1951 -1966 0
-1951 -1967 0
-1952 -1953 0
-1952 -1954 0
-1952 -1955 0
-1952 -1956 0
-1952 -1957 0
-1952 -1958 0
-1952 -1959 0
-1952 -1960 0
-1952 -1961 0
-1952 -1962 0
-1952 -1963 0
-1952 -1964 0
-1952 -1965 0
-1952 -1966 0
-1952 -1967 0
-1953 -1954 0
-1953 -1955 0
-1953 -1956 0
-1953 -1957 0
-1953 -1958 0
-1953 -1959 0
-1953 -1960 0
-1953 -1961 0
-1953 -1962 0
-1953 -1963 0
-1953 -1964 0
-1953 -1965 0
-1953 -1966 0
-1953 -1967 0
-1954 -1955 0
-1954 -1956 0
-1954 -1957 0
-1954 -1958 0
-1954 -1959 0
-1954 -1960 0
-1954 -1961 0
-1954 -1962 0
-1954 -1963 0
-1954 -1964 0
-1954 -1965 0
-1954 -1966 0
-1954 -1967 0
-1955 -1956 0
-1955 -1957 0
-1955 -1958 0
-1955 -1959 0
-1955 -1960 0
-1955 -1961 0
-1955 -1962 0
-1955 -1963 0
-1955 -1964 0
-1955 -1965 0
-1955 -1966 0
-1955 -1967 0
-1956 -1957 0
-1956 -1958 0
-1956 -1959 0
-1956 -1960 0
-1956 -1961 0
-1956 -1962 0
-1956 -1963 0
-1956 -1964 0
-1956 -1965 0
-1956 -1966 0
-1956 -1967 0
-1957 -1958 0
-1957 -1959 0
-1957 -1960 0
-1957 -1961 0
-1957 -1962 0
-1957 -1963 0
-1957 -1964 0
-1957 -1965 0
-1957 -1966 0
-1957 -1967 0
-1958 -1959 0
-1958 -1960 0
-1958 -1961 0
-1958 -1962 0
-1958 -1963 0
-1958 -1964 0
-1958 -1965 0
-1958 -1966 0
-1958 -1967 0
-1959 -1960 0
-1959 -1961 0
-1959 -1962 0
-1959 -1963 0
-1959 -1964 0
-1959 -1965 0
-1959 -1966 0
-1959 -1967 0
-1960 -1961 0
-1960 -1962 0
-1960 -1963 0
-1960 -1964 0
-1960 -1965 0
-1960 -1966 0
-1960 -1967 0
-1961 -1962 0
-1961 -1963 0
-1961 -1964 0
-1961 -1965 0
-1961 -1966 0
-1961 -1967 0
-1962 -1963 0
-1962 -1964 0
-1962 -1965 0
-1962 -1966 0
-1962 -1967 0
-1963 -1964 0
-1963 -1965 0
-1963 -1966 0
-1963 -1967 0
-1964 -1965 0
-1964 -1966 0
-1964 -1967 0
-1965 -1966 0
-1965 -1967 0
-1966 -1967 0
1968 1969 1970 1971 1972 1973 1974 1975 1976 1977 1978 1979 1980 1981 1982 1983 1984 1985 1986 1987 1988 1989 1990 1991 1992 1993 1994 1995 1996 1997 1998 1999 2000 2001 2002 2003 2004 2005 2006 2007 2008 2009 2010 2011 2012 2013 2014 2015 2016 2017 2018 2019 2020 2021 2022 2023 2024 2025 2026 2027 2028 2029 2030 2031 2032 2033 2034 2035 2036 2037 2038 2039 2040 2041 2042 2043 2044 2045 2046 2047 2048 2049 2050 2051 0
-1968 -1969 0
-1968 -1970 0
-1968 -1971 0
-1968 -1972 0
-1968 -1973 0
-1968 -1974 0
-1968 -1975 0
-1968 -1976 0
-1968 -1977 0
-1968 -1978 0
-1968 -1979 0
-1968 -1980 0
-1968 -1981 0
-1968 -1982 0
-1968 -1983 0
-1968 -1984 0
-1968 -1985 0
-1968 -1986 0
-1968 -1987 0
-1968 -1988 0
-1968 -1989 0
-1968 -1990 0
-1968 -1991 0
-1968 -1992 0
-1968 -1993 0
-1968 -1994 0
-1968 -1995 0
-1968 -1996 0
-1968 -1997 0
-1968 -1998 0
-1968 -1999 0
-1968 -2000 0
-1968 -2001 0
-1968 -2002 0
-1968 -2003 0
-1968 -2004 0
-1968 -2005 0
-1968 -2006 0
-1968 -2007 0
-1968 -2008 0
-1968 -2009 0
-1968 -2010 0
-1968 -2011 0
-1968 -2012 0
-1968 -2013 0
-1968 -2014 0
-1968 -2015 0
-1968 -2016 0
-1968 -2017 0
-1968 -2018 0
-1968 -2019 0
-1968 -2020 0
-1968 -2021 0
-1968 -2022 0
-1968 -2023 0
-1968 -2024 0
-1968 -2025 0
-1968 -2026 0
-1968 -2027 0
-1968 -2028 0
-1968 -2029 0
-1968 -2030 0
-1968 -2031 0
-1968 -2032 0
-1968 -2033 0
-1968 -2034 0
-1968 -2035 0
-1968 -2036 0
-1968 -2037 0
-1968 -2038 0
-1968 -2039 0
-1968 -2040 0
-1968 -2041 0
-1968 -2042 0
-1968 -2043 0
-1968 -2044 0
-1968 -2045 0
-1968 -2046 0
-1968 -2047 0
-1968 -2048 0
-1968 -2049 0
-1968 -2050 0
-1968 -2051 0
-1969 -1970 0
-1969 -1971 0
-1969 -1972 0
-1969 -1973 0
-1969 -1974 0
-1969 -1975 0
-1969 -1976 0
-1969 -1977 0
-1969 -1978 0
-1969 -1979 0
-1969 -1980 0
-1969 -1981 0
-1969 -1982 0
-1969 -1983 0
-1969 -1984 0
-1969 -1985 0
-1969 -1986 0
-1969 -1987 0
-1969 -1988 0
-1969 -1989 0
-1969 -1990 0
-1969 -1991 0
-1969 -1992 0
-1969 -1993 0
-1969 -1994 0
-1969 -1995 0
-1969 -1996 0
-1969 -1997 0
-1969 -1998 0
-1969 -1999 0
-1969 -2000 0
-1969 -2001 0
-1969 -2002 0
-1969 -2003 0
-1969 -2004 0
-1969 -2005 0
-1969 -2006 0
-1969 -2007 0
-1969 -2008 0
-1969 -2009 0
-1969 -2010 0
-1969 -2011 0
-1969 -2012 0
-1969 -2013 0
-1969 -2014 0
-1969 -2015 0
-1969 -2016 0
-1969 -2017 0
-1969 -2018 0
-1969 -2019 0
-1969 -2020 0
-1969 -2021 0
-1969 -2022 0
-1969 -2023 0
-1969 -2024 0
-1969 -2025 0
-1969 -2026 0
-1969 -2027 0
-1969 -2028 0
-1969 -2029 0
-1969 -2030 0
-1969 -2031 0
-1969 -2032 0
-1969 -2033 0
-1969 -2034 0
-1969 -2035 0
-1969 -2036 0
-1969 -2037 0
-1969 -2038 0
-1969 -2039 0
-1969 -2040 0
-1969 -2041 0
-1969 -2042 0
-1969 -2043 0
-1969 -2044 0
-1969 -2045 0
-1969 -2046 0
-1969 -2047 0
-1969 -2048 0
-1969 -2049 0
-1969 -2050 0
-1969 -2051 0
-1970 -1971 0
-1970 -1972 0
-1970 -1973 0
-1970 -1974 0
-1970 -1975 0
-1970 -1976 0
-1970 -1977 0
-1970 -1978 0
-1970 -1979 0
-1970 -1980 0
-1970 -1981 0
-1970 -1982 0
-1970 -1983 0
-1970 -1984 0
-1970 -1985 0
-1970 -1986 0
-1970 -1987 0
-1970 -1988 0
-1970 -1989 0
-1970 -1990 0
-1970 -1991 0
-1970 -1992 0
-1970 -1993 0
-1970 -1994 0
-1970 -1995 0
-1970 -1996 0
-1970 -1997 0
-1970 -1998 0
-1970 -1999 0
-1970 -2000 0
-1970 -2001 0
-1970 -2002 0
-1970 -2003 0
-1970 -2004 0
-1970 -2005 0
-1970 -2006 0
-1970 -2007 0
-1970 -2008 0
-1970 -2009 0
-1970 -2010 0
-1970 -2011 0
-1970 -2012 0
-1970 -2013 0
-1970 -2014 0
-1970 -2015 0
-1970 -2016 0
-1970 -2017 0
-1970 -2018 0
-1970 -2019 0
-1970 -2020 0
-1970 -2021 0
-1970 -2022 0
-1970 -2023 0
-1970 -2024 0
-1970 -2025 0
-1970 -2026 0
-1970 -2027 0
-1970 -2028 0
-1970 -2029 0
-1970 -2030 0
-1970 -2031 0
-1970 -2032 0
-1970 -2033 0
-1970 -2034 0
-1970 -2035 0
-1970 -2036 0
-1970 -2037 0
-1970 -2038 0
-1970 -2039 0
-1970 -2040 0
-1970 -2041 0
-1970 -2042 0
-1970 -2043 0
-1970 -2044 0
-1970 -2045 0
-1970 -2046 0
-1970 -2047 0
-1970 -2048 0
-1970 -2049 0
-1970 -2050 0
-1970 -2051 0
-1971 -1972 0
-1971 -1973 0
-1971 -1974 0
-1971 -1975 0
-1971 -1976 0
-1971 -1977 0
-1971 -1978 0
-1971 -1979 0
-1971 -1980 0
-1971 -1981 0
-1971 -1982 0
-1971 -1983 0
-1971 -1984 0
-1971 -1985 0
-1971 -1986 0
-1971 -1987 0
-1971 -1988 0
-1971 -1989 0
-1971 -1990 0
-1971 -1991 0
-1971 -1992 0
-1971 -1993 0
-1971 -1994 0
-1971 -1995 0
-1971 -1996 0
-1971 -1997 0
-1971 -1998 0
-1971 -1999 0
-1971 -2000 0
-1971 -2001 0
-1971 -2002 0
-1971 -2003 0
-1971 -2004 0
-1971 -2005 0
-1971 -2006 0
-1971 -2007 0
-1971 -2008 0
-1971 -2009 0
-1971 -2010 0
-1971 -2011 0
-1971 -2012 0
-1971 -2013 0
-1971 -2014 0
-1971 -2015 0
-1971 -2016 0
-1971 -2017 0
-1971 -2018 0
-1971 -2019 0
-1971 -2020 0
-1971 -2021 0
-1971 -2022 0
-1971 -2023 0
-1971 -2024 0
-1971 -2025 0
-1971 -2026 0
-1971 -2027 0
-1971 -2028 0
-1971 -2029 0
-1971 -2030 0
-1971 -2031 0
-1971 -2032 0
-1971 -2033 0
-1971 -2034 0
-1971 -2035 0
-1971 -2036 0
-1971 -2037 0
-1971 -2038 0
-1971 -2039 0
-1971 -2040 0
-1971 -2041 0
-1971 -2042 0
-1971 -2043 0
-1971 -2044 0
-1971 -2045 0
-1971 -2046 0
-1971 -2047 0
-1971 -2048 0
-1971 -2049 0
-1971 -2050 0
-1971 -2051 0
-1972 -1973 0
-1972 -1974 0
-1972 -1975 0
-1972 -1976 0
-1972 -1977 0
-1972 -1978 0
-1972 -1979 0
-1972 -1980 0
-1972 -1981 0
-1972 -1982 0
-1972 -1983 0
-1972 -1984 0
-1972 -1985 0
-1972 -1986 0
-1972 -1987 0
-1972 -1988 0
-1972 -1989 0
-1972 -1990 0
-1972 -1991 0
-1972 -1992 0
-1972 -1993 0
-1972 -1994 0
-1972 -1995 0
-1972 -1996 0
-1972 -1997 0
-1972 -1998 0
-1972 -1999 0
-1972 -2000 0
-1972 -2001 0
-1972 -2002 0
-1972 -2003 0
-1972 -2004 0
-1972 -2005 0
-1972 -2006 0
-1972 -2007 0
-1972 -2008 0
-1972 -2009 0
-1972 -2010 0
-1972 -2011 0
-1972 -2012 0
-1972 -2013 0
-1972 -2014 0
-1972 -2015 0
-1972 -2016 0
-1972 -2017 0
-1972 -2018 0
-1972 -2019 0
-1972 -2020 0
-1972 -2021 0
-1972 -2022 0
-1972 -2023 0
-1972 -2024 0
-1972 -2025 0
-1972 -2026 0
-1972 -2027 0
-1972 -2028 0
-1972 -2029 0
-1972 -2030 0
-1972 -2031 0
-1972 -2032 0
-1972 -2033 0
-1972 -2034 0
-1972 -2035 0
-1972 -2036 0
-1972 -2037 0
-1972 -2038 0
-1972 -2039 0
-1972 -2040 0
-1972 -2041 0
-1972 -2042 0
-1972 -2043 0
-1972 -2044 0
-1972 -2045 0
-1972 -2046 0
-1972 -2047 0
-1972 -2048 0
-1972 -2049 0
-1972 -2050 0
-1972 -2051 0
-1973 -1974 0
-1973 -1975 0
-1973 -1976 0
-1973 -1977 0
-1973 -1978 0
-1973 -1979 0
-1973 -1980 0
-1973 -1981 0
-1973 -1982 0
-1973 -1983 0
-1973 -1984 0
-1973 -1985 0
-1973 -1986 0
-1973 -1987 0
-1973 -1988 0
-1973 -1989 0
-1973 -1990 0
-1973 -1991 0
-1973 -1992 0
-1973 -1993 0
-1973 -1994 0
-1973 -1995 0
-1973 -1996 0
-1973 -1997 0
-1973 -1998 0
-1973 -1999 0
-1973 -2000 0
-1973 -2001 0
-1973 -2002 0
-1973 -2003 0
-1973 -2004 0
-1973 -2005 0
-1973 -2006 0
-1973 -2007 0
-1973 -2008 0
-1973 -2009 0
-1973 -2010 0
-1973 -2011 0
-1973 -2012 0
-1973 -2013 0
-1973 -2014 0
-1973 -2015 0
-1973 -2016 0
-1973 -2017 0
-1973 -2018 0
-1973 -2019 0
-1973 -2020 0
-1973 -2021 0
-1973 -2022 0
-1973 -2023 0
-1973 -2024 0
-1973 -2025 0
-1973 -2026 0
-1973 -2027 0
-1973 -2028 0
-1973 -2029 0
-1973 -2030 0
-1973 -2031 0
-1973 -2032 0
-1973 -2033 0
-1973 -2034 0
-1973 -2035 0
-1973 -2036 0
-1973 -2037 0
-1973 -2038 0
-1973 -2039 0
-1973 -2040 0
-1973 -2041 0
-1973 -2042 0
-1973 -2043 0
-1973 -2044 0
-1973 -2045 0
-1973 -2046 0
-1973 -2047 0
-1973 -2048 0
-1973 -2049 0
-1973 -2050 0
-1973 -2051 0
-1974 -1975 0
-1974 -1976 0
-1974 -1977 0
-1974 -1978 0
-1974 -1979 0
-1974 -1980 0
-1974 -1981 0
-1974 -1982 0
-1974 -1983 0
-1974 -1984 0
-1974 -1985 0
-1974 -1986 0
-1974 -1987 0
-1974 -1988 0
-1974 -1989 0
-1974 -1990 0
-1974 -1991 0
-1974 -1992 0
-1974 -1993 0
-1974 -1994 0
-1974 -1995 0
-1974 -1996 0
-1974 -1997 0
-1974 -1998 0
-1974 -1999 0
-1974 -2000 0
-1974 -2001 0
-1974 -2002 0
-1974 -2003 0
-1974 -2004 0
-1974 -2005 0
-1974 -2006 0
-1974 -2007 0
-1974 -2008 0
-1974 -2009 0
-1974 -2010 0
-1974 -2011 0
-1974 -2012 0
-1974 -2013 0
-1974 -2014 0
-1974 -2015 0
-1974 -2016 0
-1974 -2017 0
-1974 -2018 0
-1974 -2019 0
-1974 -2020 0
-1974 -2021 0
-1974 -2022 0
-1974 -2023 0
-1974 -2024 0
-1974 -2025 0
-1974 -2026 0
-1974 -2027 0
-1974 -2028 0
-1974 -2029 0
-1974 -2030 0
-1974 -2031 0
-1974 -2032 0
-1974 -2033 0
-1974 -2034 0
-1974 -2035 0
-1974 -2036 0
-1974 -2037 0
-1974 -2038 0
-1974 -2039 0
-1974 -2040 0
-1974 -2041 0
-1974 -2042 0
-1974 -2043 0
-1974 -2044 0
-1974 -2045 0
-1974 -2046 0
-1974 -2047 0
-1974 -2048 0
-1974 -2049 0
-1974 -2050 0
-1974 -2051 0
-1975 -1976 0
-1975 -1977 0
-1975 -1978 0
-1975 -1979 0
-1975 -1980 0
-1975 -1981 0
-1975 -1982 0
-1975 -1983 0
-1975 -1984 0
-1975 -1985 0
-1975 -1986 0
-1975 -1987 0
-1975 -1988 0
-1975 -1989 0
-1975 -1990 0
-1975 -1991 0
-1975 -1992 0
-1975 -1993 0
-1975 -1994 0
-1975 -1995 0
-1975 -1996 0
-1975 -1997 0
-1975 -1998 0
-1975 -1999 0
-1975 -2000 0
-1975 -2001 0
-1975 -2002 0
-1975 -2003 0
-1975 -2004 0
-1975 -2005 0
-1975 -2006 0
-1975 -2007 0
-1975 -2008 0
-1975 -2009 0
-1975 -2010 0
-1975 -2011 0
-1975 -2012 0
-1975 -2013 0
-1975 -2014 0
-1975 -2015 0
-1975 -2016 0
-1975 -2017 0
-1975 -2018 0
-1975 -2019 0
-1975 -2020 0
-1975 -2021 0
-1975 -2022 0
-1975 -2023 0
-1975 -2024 0
-1975 -2025 0
-1975 -2026 0
-1975 -2027 0
-1975 -2028 0
-1975 -2029 0
-1975 -2030 0
-1975 -2031 0
-1975 -2032 0
-1975 -2033 0
-1975 -2034 0
-1975 -2035 0
-1975 -2036 0
-1975 -2037 0
-1975 -2038 0
-1975 -2039 0
-1975 -2040 0
-1975 -2041 0
-1975 -2042 0
-1975 -2043 0
-1975 -2044 0
-1975 -2045 0
-1975 -2046 0
-1975 -2047 0
-1975 -2048 0
-1975 -2049 0
-1975 -2050 0
-1975 -2051 0
-1976 -1977 0
-1976 -1978 0
-1976 -1979 0
-1976 -1980 0
-1976 -1981 0
-1976 -1982 0
-1976 -1983 0
-1976 -1984 0
-1976 -1985 0
-1976 -1986 0
-1976 -1987 0
-1976 -1988 0
-1976 -1989 0
-1976 -1990 0
-1976 -1991 0
-1976 -1992 0
-1976 -1993 0
-1976 -1994 0
-1976 -1995 0
-1976 -1996 0
-1976 -1997 0
-1976 -1998 0
-1976 -1999 0
-1976 -2000 0
-1976 -2001 0
-1976 -2002 0
-1976 -2003 0
-1976 -2004 0
-1976 -2005 0
-1976 -2006 0
-1976 -2007 0
-1976 -2008 0
-1976 -2009 0
-1976 -2010 0
-1976 -2011 0
-1976 -2012 0
-1976 -2013 0
-1976 -2014 0
-1976 -2015 0
-1976 -2016 0
-1976 -2017 0
-1976 -2018 0
-1976 -2019 0
-1976 -2020 0
-1976 -2021 0
-1976 -2022 0
-1976 -2023 0
-1976 -2024 0
-1976 -2025 0
-1976 -2026 0
-1976 -2027 0
-1976 -2028 0
-1976 -2029 0
-1976 -2030 0
-1976 -2031 0
-1976 -2032 0
-1976 -2033 0
-1976 -2034 0
-1976 -2035 0
-1976 -2036 0
-1976 -2037 0
-1976 -2038 0
-1976 -2039 0
-1976 -2040 0
-1976 -2041 0
-1976 -2042 0
-1976 -2043 0
-1976 -2044 0
-1976 -2045 0
-1976 -2046 0
-1976 -2047 0
-1976 -2048 0
-1976 -2049 0
-1976 -2050 0
-1976 -2051 0
-1977 -1978 0
-1977 -1979 0
-1977 -1980 0
-1977 -1981 0
-1977 -1982 0
-1977 -1983 0
-1977 -1984 0
-1977 -1985 0
-1977 -1986 0
-1977 -1987 0
-1977 -1988 0
-1977 -1989 0
-1977 -1990 0
-1977 -1991 0
-1977 -1992 0
-1977 -1993 0
-1977 -1994 0
-1977 -1995 0
-1977 -1996 0
-1977 -1997 0
-1977 -1998 0
-1977 -1999 0
-1977 -2000 0
-1977 -2001 0
-1977 -2002 0
-1977 -2003 0
-1977 -2004 0
-1977 -2005 0
-1977 -2006 0
-1977 -2007 0
-1977 -2008 0
-1977 -2009 0
-1977 -2010 0
-1977 -2011 0
-1977 -2012 0
-1977 -2013 0
-1977 -2014 0
-1977 -2015 0
-1977 -2016 0
-1977 -2017 0
-1977 -2018 0
-1977 -2019 0
-1977 -2020 0
-1977 -2021 0
-1977 -2022 0
-1977 -2023 0
-1977 -2024 0
-1977 -2025 0
-1977 -2026 0
-1977 -2027 0
-1977 -2028 0
-1977 -2029 0
-1977 -2030 0
-1977 -2031 0
-1977 -2032 0
-1977 -2033 0
-1977 -2034 0
-1977 -2035 0
-1977 -2036 0
-1977 -2037 0
-1977 -2038 0
-1977 -2039 0
-1977 -2040 0
-1977 -2041 0
-1977 -2042 0
-1977 -2043 0
-1977 -2044 0
-1977 -2045 0
-1977 -2046 0
-1977 -2047 0
-1977 -2048 0
-1977 -2049 0
-1977 -2050 0
-1977 -2051 0
-1978 -1979 0
-1978 -1980 0
-1978 -1981 0
-1978 -1982 0
-1978 -1983 0
-1978 -1984 0
-1978 -1985 0
-1978 -1986 0
-1978 -1987 0
-1978 -1988 0
-1978 -1989 0
-1978 -1990 0
-1978 -1991 0
-1978 -1992 0
-1978 -1993 0
-1978 -1994 0
-1978 -1995 0
-1978 -1996 0
-1978 -1997 0
-1978 -1998 0
-1978 -1999 0
-1978 -2000 0
-1978 -2001 0
-1978 -2002 0
-1978 -2003 0
-1978 -2004 0
-1978 -2005 0
-1978 -2006 0
-1978 -2007 0
-1978 -2008 0
-1978 -2009 0
-1978 -2010 0
-1978 -2011 0
-1978 -2012 0
-1978 -2013 0
-1978 -2014 0
-1978 -2015 0
-1978 -2016 0
-1978 -2017 0
-1978 -2018 0
-1978 -2019 0
-1978 -2020 0
-1978 -2021 0
-1978 -2022 0
-1978 -2023 0
-1978 -2024 0
-1978 -2025 0
-1978 -2026 0
-1978 -2027 0
-1978 -2028 0
-1978 -2029 0
-1978 -2030 0
-1978 -2031 0
-1978 -2032 0
-1978 -2033 0
-1978 -2034 0
-1978 -2035 0
-1978 -2036 0
-1978 -2037 0
-1978 -2038 0
-1978 -2039 0
-1978 -2040 0
-1978 -2041 0
-1978 -2042 0
-1978 -2043 0
-1978 -2044 0
-1978 -2045 0
-1978 -2046 0
-1978 -2047 0
-1978 -2048 0
-1978 -2049 0
-1978 -2050 0
-1978 -2051 0
-1979 -1980 0
-1979 -1981 0
-1979 -1982 0
-1979 -1983 0
-1979 -1984 0
-1979 -1985 0
-1979 -1986 0
-1979 -1987 0
-1979 -1988 0
-1979 -1989 0
-1979 -1990 0
-1979 -1991 0
-1979 -1992 0
-1979 -1993 0
-1979 -1994 0
-1979 -1995 0
-1979 -1996 0
-1979 -1997 0
-1979 -1998 0
-1979 -1999 0
-1979 -2000 0
-1979 -2001 0
-1979 -2002 0
-1979 -2003 0
-1979 -2004 0
-1979 -2005 0
-1979 -2006 0
-1979 -2007 0
-1979 -2008 0
-1979 -2009 0
-1979 -2010 0
-1979 -2011 0
-1979 -2012 0
-1979 -2013 0
-1979 -2014 0
-1979 -2015 0
-1979 -2016 0
-1979 -2017 0
-1979 -2018 0
-1979 -2019 0
-1979 -2020 0
-1979 -2021 0
-1979 -2022 0
-1979 -2023 0
-1979 -2024 0
-1979 -2025 0
-1979 -2026 0
-1979 -2027 0
-1979 -2028 0
-1979 -2029 0
-1979 -2030 0
-1979 -2031 0
-1979 -2032 0
-1979 -2033 0
-1979 -2034 0
-1979 -2035 0
-1979 -2036 0
-1979 -2037 0
-1979 -2038 0
-1979 -2039 0
-1979 -2040 0
-1979 -2041 0
-1979 -2042 0
-1979 -2043 0
-1979 -2044 0
-1979 -2045 0
-1979 -2046 0
-1979 -2047 0
-1979 -2048 0
-1979 -2049 0
-1979 -2050 0
-1979 -2051 0
-1980 -1981 0
-1980 -1982 0
-1980 -1983 0
-1980 -1984 0
-1980 -1985 0
-1980 -1986 0
-1980 -1987 0
-1980 -1988 0
-1980 -1989 0
-1980 -1990 0
-1980 -1991 0
-1980 -1992 0
-1980 -1993 0
-1980 -1994 0
-1980 -1995 0
-1980 -1996 0
-1980 -1997 0
-1980 -1998 0
-1980 -1999 0
-1980 -2000 0
-1980 -2001 0
-1980 -2002 0
-1980 -2003 0
-1980 -2004 0
-1980 -2005 0
-1980 -2006 0
-1980 -2007 0
-1980 -2008 0
-1980 -2009 0
-1980 -2010 0
-1980 -2011 0
-1980 -2012 0
-1980 -2013 0
-1980 -2014 0
-1980 -2015 0
-1980 -2016 0
-1980 -2017 0
-1980 -2018 0
-1980 -2019 0
-1980 -2020 0
-1980 -2021 0
-1980 -2022 0
-1980 -2023 0
-1980 -2024 0
-1980 -2025 0
-1980 -2026 0
-1980 -2027 0
-1980 -2028 0
-1980 -2029 0
-1980 -2030 0
-1980 -2031 0
-1980 -2032 0
-1980 -2033 0
-1980 -2034 0
-1980 -2035 0
-1980 -2036 0
-1980 -2037 0
-1980 -2038 0
-1980 -2039 0
-1980 -2040 0
-1980 -2041 0
-1980 -2042 0
-1980 -2043 0
-1980 -2044 0
-1980 -2045 0
-1980 -2046 0
-1980 -2047 0
-1980 -2048 0
-1980 -2049 0
-1980 -2050 0
-1980 -2051 0
-1981 -1982 0
-1981 -1983 0
-1981 -1984 0
-1981 -1985 0
-1981 -1986 0
-1981 -1987 0
-1981 -1988 0
-1981 -1989 0
-1981 -1990 0
-1981 -1991 0
-1981 -1992 0
-1981 -1993 0
-1981 -1994 0
-1981 -1995 0
-1981 -1996 0
-1981 -1997 0
-1981 -1998 0
-1981 -1999 0
-1981 -2000 0
-1981 -2001 0
-1981 -2002 0
-1981 -2003 0
-1981 -2004 0
-1981 -2005 0
-1981 -2006 0
-1981 -2007 0
-1981 -2008 0
-1981 -2009 0
-1981 -2010 0
-1981 -2011 0
-1981 -2012 0
-1981 -2013 0
-1981 -2014 0
-1981 -2015 0
-1981 -2016 0
-1981 -2017 0
-1981 -2018 0
-1981 -2019 0
-1981 -2020 0
-1981 -2021 0
-1981 -2022 0
-1981 -2023 0
-1981 -2024 0
-1981 -2025 0
-1981 -2026 0
-1981 -2027 0
-1981 -2028 0
-1981 -2029 0
-1981 -2030 0
-1981 -2031 0
-1981 -2032 0
-1981 -2033 0
-1981 -2034 0
-1981 -2035 0
-1981 -2036 0
-1981 -2037 0
-1981 -2038 0
-1981 -2039 0
-1981 -2040 0
-1981 -2041 0
-1981 -2042 0
-1981 -2043 0
-1981 -2044 0
-1981 -2045 0
-1981 -2046 0
-1981 -2047 0
-1981 -2048 0
-1981 -2049 0
-1981 -2050 0
-1981 -2051 0
-1982 -1983 0
-1982 -1984 0
-1982 -1985 0
-1982 -1986 0
-1982 -1987 0
-1982 -1988 0
-1982 -1989 0
-1982 -1990 0
-1982 -1991 0
-1982 -1992 0
-1982 -1993 0
-1982 -1994 0
-1982 -1995 0
-1982 -1996 0
-1982 -1997 0
-1982 -1998 0
-1982 -1999 0
-1982 -2000 0
-1982 -2001 0
-1982 -2002 0
-1982 -2003 0
-1982 -2004 0
-1982 -2005 0
-1982 -2006 0
-1982 -2007 0
-1982 -2008 0
-1982 -2009 0
-1982 -2010 0
-1982 -2011 0
-1982 -2012 0
-1982 -2013 0
-1982 -2014 0
-1982 -2015 0
-1982 -2016 0
-1982 -2017 0
-1982 -2018 0
-1982 -2019 0
-1982 -2020 0
-1982 -2021 0
-1982 -2022 0
-1982 -2023 0
-1982 -2024 0
-1982 -2025 0
-1982 -2026 0
-1982 -2027 0
-1982 -2028 0
-1982 -2029 0
-1982 -2030 0
-1982 -2031 0
-1982 -2032 0
-1982 -2033 0
-1982 -2034 0
-1982 -2035 0
-1982 -2036 0
-1982 -2037 0
-1982 -2038 0
-1982 -2039 0
-1982 -2040 0
-1982 -2041 0
-1982 -2042 0
-1982 -2043 0
-1982 -2044 0
-1982 -2045 0
-1982 -2046 0
-1982 -2047 0
-1982 -2048 0
-1982 -2049 0
-1982 -2050 0
-1982 -2051 0
-1983 -1984 0
-1983 -1985 0
-1983 -1986 0
-1983 -1987 0
-1983 -1988 0
-1983 -1989 0
-1983 -1990 0
-1983 -1991 0
-1983 -1992 0
-1983 -1993 0
-1983 -1994 0
-1983 -1995 0
-1983 -1996 0
-1983 -1997 0
-1983 -1998 0
-1983 -1999 0
-1983 -2000 0
-1983 -2001 0
-1983 -2002 0
-1983 -2003 0
-1983 -2004 0
-1983 -2005 0
-1983 -2006 0
-1983 -2007 0
-1983 -2008 0
-1983 -2009 0
-1983 -2010 0
-1983 -2011 0
-1983 -2012 0
-1983 -2013 0
-1983 -2014 0
-1983 -2015 0
-1983 -2016 0
-1983 -2017 0
-1983 -2018 0
-1983 -2019 0
-1983 -2020 0
-1983 -2021 0
-1983 -2022 0
-1983 -2023 0
-1983 -2024 0
-1983 -2025 0
-1983 -2026 0
-1983 -2027 0
-1983 -2028 0
-1983 -2029 0
-1983 -2030 0
-1983 -2031 0
-1983 -2032 0
-1983 -2033 0
-1983 -2034 0
-1983 -2035 0
-1983 -2036 0
-1983 -2037 0
-1983 -2038 0
-1983 -2039 0
-1983 -2040 0
-1983 -2041 0
-1983 -2042 0
-1983 -2043 0
-1983 -2044 0
-1983 -2045 0
-1983 -2046 0
-1983 -2047 0
-1983 -2048 0
-1983 -2049 0
-1983 -2050 0
-1983 -2051 0
-1984 -1985 0
-1984 -1986 0
-1984 -1987 0
-1984 -1988 0
-1984 -1989 0
-1984 -1990 0
-1984 -1991 0
-1984 -1992 0
-1984 -1993 0
-1984 -1994 0
-1984 -1995 0
-1984 -1996 0
-1984 -1997 0
-1984 -1998 0
-1984 -1999 0
-1984 -2000 0
-1984 -2001 0
-1984 -2002 0
-1984 -2003 0
-1984 -2004 0
-1984 -2005 0
-1984 -2006 0
-1984 -2007 0
-1984 -2008 0
-1984 -2009 0
-1984 -2010 0
-1984 -2011 0
-1984 -2012 0
-1984 -2013 0
-1984 -2014 0
-1984 -2015 0
-1984 -2016 0
-1984 -2017 0
-1984 -2018 0
-1984 -2019 0
-1984 -2020 0
-1984 -2021 0
-1984 -2022 0
-1984 -2023 0
-1984 -2024 0
-1984 -2025 0
-1984 -2026 0
-1984 -2027 0
-1984 -2028 0
-1984 -2029 0
-1984 -2030 0
-1984 -2031 0
-1984 -2032 0
-1984 -2033 0
-1984 -2034 0
-1984 -2035 0
-1984 -2036 0
-1984 -2037 0
-1984 -2038 0
-1984 -2039 0
-1984 -2040 0
-1984 -2041 0
-1984 -2042 0
-1984 -2043 0
-1984 -2044 0
-1984 -2045 0
-1984 -2046 0
-1984 -2047 0
-1984 -2048 0
-1984 -2049 0
-1984 -2050 0
-1984 -2051 0
-1985 -1986 0
-1985 -1987 0
-1985 -1988 0
-1985 -1989 0
-1985 -1990 0
-1985 -1991 0
-1985 -1992 0
-1985 -1993 0
-1985 -1994 0
-1985 -1995 0
-1985 -1996 0
-1985 -1997 0
-1985 -1998 0
-1985 -1999 0
-1985 -2000 0
-1985 -2001 0
-1985 -2002 0
-1985 -2003 0
-1985 -2004 0
-1985 -2005 0
-1985 -2006 0
-1985 -2007 0
-1985 -2008 0
-1985 -2009 0
-1985 -2010 0
-1985 -2011 0
-1985 -2012 0
-1985 -2013 0
-1985 -2014 0
-1985 -2015 0
-1985 -2016 0
-1985 -2017 0
-1985 -2018 0
-1985 -2019 0
-1985 -2020 0
-1985 -2021 0
-1985 -2022 0
-1985 -2023 0
-1985 -2024 0
-1985 -2025 0
-1985 -2026 0
-1985 -2027 0
-1985 -2028 0
-1985 -2029 0
-1985 -2030 0
-1985 -2031 0
-1985 -2032 0
-1985 -2033 0
-1985 -2034 0
-1985 -2035 0
-1985 -2036 0
-1985 -2037 0
-1985 -2038 0
-1985 -2039 0
-1985 -2040 0
-1985 -2041 0
-1985 -2042 0
-1985 -2043 0
-1985 -2044 0
-1985 -2045 0
-1985 -2046 0
-1985 -2047 0
-1985 -2048 0
-1985 -2049 0
-1985 -2050 0
-1985 -2051 0
-1986 -1987 0
-1986 -1988 0
-1986 -1989 0
-1986 -1990 0
-1986 -1991 0
-1986 -1992 0
-1986 -1993 0
-1986 -1994 0
-1986 -1995 0
-1986 -1996 0
-1986 -1997 0
-1986 -1998 0
-1986 -1999 0
-1986 -2000 0
-1986 -2001 0
-1986 -2002 0
-1986 -2003 0
-1986 -2004 0
-1986 -2005 0
-1986 -2006 0
-1986 -2007 0
-1986 -2008 0
-1986 -2009 0
-1986 -2010 0
-1986 -2011 0
-1986 -2012 0
-1986 -2013 0
-1986 -2014 0
-1986 -2015 0
-1986 -2016 0
-1986 -2017 0
-1986 -2018 0
-1986 -2019 0
-1986 -2020 0
-1986 -2021 0
-1986 -2022 0
-1986 -2023 0
-1986 -2024 0
-1986 -2025 0
-1986 -2026 0
-1986 -2027 0
-1986 -2028 0
-1986 -2029 0
-1986 -2030 0
-1986 -2031 0
-1986 -2032 0
-1986 -2033 0
-1986 -2034 0
-1986 -2035 0
-1986 -2036 0
-1986 -2037 0
-1986 -2038 0
-1986 -2039 0
-1986 -2040 0
-1986 -2041 0
-1986 -2042 0
-1986 -2043 0
-1986 -2044 0
-1986 -2045 0
-1986 -2046 0
-1986 -2047 0
-1986 -2048 0
-1986 -2049 0
-1986 -2050 0
-1986 -2051 0
-1987 -1988 0
-1987 -1989 0
-1987 -1990 0
-1987 -1991 0
-1987 -1992 0
-1987 -1993 0
-1987 -1994 0
-1987 -1995 0
-1987 -1996 0
-1987 -1997 0
-1987 -1998 0
-1987 -1999 0
-1987 -2000 0
-1987 -2001 0
-1987 -2002 0
-1987 -2003 0
-1987 -2004 0
-1987 -2005 0
-1987 -2006 0
-1987 -2007 0
-1987 -2008 0
-1987 -2009 0
-1987 -2010 0
-1987 -2011 0
-1987 -2012 0
-1987 -2013 0
-1987 -2014 0
-1987 -2015 0
-1987 -2016 0
-1987 -2017 0
-1987 -2018 0
-1987 -2019 0
-1987 -2020 0
-1987 -2021 0
-1987 -2022 0
-1987 -2023 0
-1987 -2024 0
-1987 -2025 0
-1987 -2026 0
-1987 -2027 0
-1987 -2028 0
-1987 -2029 0
-1987 -2030 0
-1987 -2031 0
-1987 -2032 0
-1987 -2033 0
-1987 -2034 0
-1987 -2035 0
-1987 -2036 0
-1987 -2037 0
-1987 -2038 0
-1987 -2039 0
-1987 -2040 0
-1987 -2041 0
-1987 -2042 0
-1987 -2043 0
-1987 -2044 0
-1987 -2045 0
-1987 -2046 0
-1987 -2047 0
-1987 -2048 0
-1987 -2049 0
-1987 -2050 0
-1987 -2051 0
-1988 -1989 0
-1988 -1990 0
-1988 -1991 0
-1988 -1992 0
-1988 -1993 0
-1988 -1994 0
-1988 -1995 0
-1988 -1996 0
-1988 -1997 0
-1988 -1998 0
-1988 -1999 0
-1988 -2000 0
-1988 -2001 0
-1988 -2002 0
-1988 -2003 0
-1988 -2004 0
-1988 -2005 0
-1988 -2006 0
-1988 -2007 0
-1988 -2008 0
-1988 -2009 0
-1988 -2010 0
-1988 -2011 0
-1988 -2012 0
-1988 -2013 0
-1988 -2014 0
-1988 -2015 0
-1988 -2016 0
-1988 -2017 0
-1988 -2018 0
-1988 -2019 0
-1988 -2020 0
-1988 -2021 0
-1988 -2022 0
-1988 -2023 0
-1988 -2024 0
-1988 -2025 0
-1988 -2026 0
-1988 -2027 0
-1988 -2028 0
-1988 -2029 0
-1988 -2030 0
-1988 -2031 0
-1988 -2032 0
-1988 -2033 0
-1988 -2034 0
-1988 -2035 0
-1988 -2036 0
-1988 -2037 0
-1988 -2038 0
-1988 -2039 0
-1988 -2040 0
-1988 -2041 0
-1988 -2042 0
-1988 -2043 0
-1988 -2044 0
-1988 -2045 0
-1988 -2046 0
-1988 -2047 0
-1988 -2048 0
-1988 -2049 0
-1988 -2050 0
-1988 -2051 0
-1989 -1990 0
-1989 -1991 0
-1989 -1992 0
-1989 -1993 0
-1989 -1994 0
-1989 -1995 0
-1989 -1996 0
-1989 -1997 0
-1989 -1998 0
-1989 -1999 0
-1989 -2000 0
-1989 -2001 0
-1989 -2002 0
-1989 -2003 0
-1989 -2004 0
-1989 -2005 0
-1989 -2006 0
-1989 -2007 0
-1989 -2008 0
-1989 -2009 0
-1989 -2010 0
-1989 -2011 0
-1989 -2012 0
-1989 -2013 0
-1989 -2014 0
-1989 -2015 0
-1989 -2016 0
-1989 -2017 0
-1989 -2018 0
-1989 -2019 0
-1989 -2020 0
-1989 -2021 0
-1989 -2022 0
-1989 -2023 0
-1989 -2024 0
-1989 -2025 0
-1989 -2026 0
-1989 -2027 0
-1989 -2028 0
-1989 -2029 0
-1989 -2030 0
-1989 -2031 0
-1989 -2032 0
-1989 -2033 0
-1989 -2034 0
-1989 -2035 0
-1989 -2036 0
-1989 -2037 0
-1989 -2038 0
-1989 -2039 0
-1989 -2040 0
-1989 -2041 0
-1989 -2042 0
-1989 -2043 0
-1989 -2044 0
-1989 -2045 0
-1989 -2046 0
-1989 -2047 0
-1989 -2048 0
-1989 -2049 0
-1989 -2050 0
-1989 -2051 0
-1990 -1991 0
-1990 -1992 0
-1990 -1993 0
-1990 -1994 0
-1990 -1995 0
-1990 -1996 0
-1990 -1997 0
-1990 -1998 0
-1990 -1999 0
-1990 -2000 0
-1990 -2001 0
-1990 -2002 0
-1990 -2003 0
-1990 -2004 0
-1990 -2005 0
-1990 -2006 0
-1990 -2007 0
-1990 -2008 0
-1990 -2009 0
-1990 -2010 0
-1990 -2011 0
-1990 -2012 0
-1990 -2013 0
-1990 -2014 0
-1990 -2015 0
-1990 -2016 0
-1990 -2017 0
-1990 -2018 0
-1990 -2019 0
-1990 -2020 0
-1990 -2021 0
-1990 -2022 0
-1990 -2023 0
-1990 -2024 0
-1990 -2025 0
-1990 -2026 0
-1990 -2027 0
-1990 -2028 0
-1990 -2029 0
-1990 -2030 0
-1990 -2031 0
-1990 -2032 0
-1990 -2033 0
-1990 -2034 0
-1990 -2035 0
-1990 -2036 0
-1990 -2037 0
-1990 -2038 0
-1990 -2039 0
-1990 -2040 0
-1990 -2041 0
-1990 -2042 0
-1990 -2043 0
-1990 -2044 0
-1990 -2045 0
-1990 -2046 0
-1990 -2047 0
-1990 -2048 0
-1990 -2049 0
-1990 -2050 0
-1990 -2051 0
-1991 -1992 0
-1991 -1993 0
-1991 -1994 0
-1991 -1995 0
-1991 -1996 0
-1991 -1997 0
-1991 -1998 0
-1991 -1999 0
-1991 -2000 0
-1991 -2001 0
-1991 -2002 0
-1991 -2003 0
-1991 -2004 0
-1991 -2005 0
-1991 -2006 0
-1991 -2007 0
-1991 -2008 0
-1991 -2009 0
-1991 -2010 0
-1991 -2011 0
-1991 -2012 0
-1991 -2013 0
-1991 -2014 0
-1991 -2015 0
-1991 -2016 0
-1991 -2017 0
-1991 -2018 0
-1991 -2019 0
-1991 -2020 0
-1991 -2021 0
-1991 -2022 0
-1991 -2023 0
-1991 -2024 0
-1991 -2025 0
-1991 -2026 0
-1991 -2027 0
-1991 -2028 0
-1991 -2029 0
-1991 -2030 0
-1991 -2031 0
-1991 -2032 0
-1991 -2033 0
-1991 -2034 0
-1991 -2035 0
-1991 -2036 0
-1991 -2037 0
-1991 -2038 0
-1991 -2039 0
-1991 -2040 0
-1991 -2041 0
-1991 -2042 0
-1991 -2043 0
-1991 -2044 0
-1991 -2045 0
-1991 -2046 0
-1991 -2047 0
-1991 -2048 0
-1991 -2049 0
-1991 -2050 0
-1991 -2051 0
-1992 -1993 0
-1992 -1994 0
-1992 -1995 0
-1992 -1996 0
-1992 -1997 0
-1992 -1998 0
-1992 -1999 0
-1992 -2000 0
-1992 -2001 0
-1992 -2002 0
-1992 -2003 0
-1992 -2004 0
-1992 -2005 0
-1992 -2006 0
-1992 -2007 0
-1992 -2008 0
-1992 -2009 0
-1992 -2010 0
-1992 -2011 0
-1992 -2012 0
-1992 -2013 0
-1992 -2014 0
-1992 -2015 0
-1992 -2016 0
-1992 -2017 0
-1992 -2018 0
-1992 -2019 0
-1992 -2020 0
-1992 -2021 0
-1992 -2022 0
-1992 -2023 0
-1992 -2024 0
-1992 -2025 0
-1992 -2026 0
-1992 -2027 0
-1992 -2028 0
-1992 -2029 0
-1992 -2030 0
-1992 -2031 0
-1992 -2032 0
-1992 -2033 0
-1992 -2034 0
-1992 -2035 0
-1992 -2036 0
-1992 -2037 0
-1992 -2038 0
-1992 -2039 0
-1992 -2040 0
-1992 -2041 0
-1992 -2042 0
-1992 -2043 0
-1992 -2044 0
-1992 -2045 0
-1992 -2046 0
-1992 -2047 0
-1992 -2048 0
-1992 -2049 0
-1992 -2050 0
-1992 -2051 0
-1993 -1994 0
-1993 -1995 0
-1993 -1996 0
-1993 -1997 0
-1993 -1998 0
-1993 -1999 0
-1993 -2000 0
-1993 -2001 0
-1993 -2002 0
-1993 -2003 0
-1993 -2004 0
-1993 -2005 0
-1993 -2006 0
-1993 -2007 0
-1993 -2008 0
-1993 -2009 0
-1993 -2010 0
-1993 -2011 0
-1993 -2012 0
-1993 -2013 0
-1993 -2014 0
-1993 -2015 0
-1993 -2016 0
-1993 -2017 0
-1993 -2018 0
-1993 -2019 0
-1993 -2020 0
-1993 -2021 0
-1993 -2022 0
-1993 -2023 0
-1993 -2024 0
-1993 -2025 0
-1993 -2026 0
-1993 -2027 0
-1993 -2028 0
-1993 -2029 0
-1993 -2030 0
-1993 -2031 0
-1993 -2032 0
-1993 -2033 0
-1993 -2034 0
-1993 -2035 0
-1993 -2036 0
-1993 -2037 0
-1993 -2038 0
-1993 -2039 0
-1993 -2040 0
-1993 -2041 0
-1993 -2042 0
-1993 -2043 0
-1993 -2044 0
-1993 -2045 0
-1993 -2046 0
-1993 -2047 0
-1993 -2048 0
-1993 -2049 0
-1993 -2050 0
-1993 -2051 0
-1994 -1995 0
-1994 -1996 0
-1994 -1997 0
-1994 -1998 0
-1994 -1999 0
-1994 -2000 0
-1994 -2001 0
-1994 -2002 0
-1994 -2003 0
-1994 -2004 0
-1994 -2005 0
-1994 -2006 0
-1994 -2007 0
-1994 -2008 0
-1994 -2009 0
-1994 -2010 0
-1994 -2011 0
-1994 -2012 0
-1994 -2013 0
-1994 -2014 0
-1994 -2015 0
-1994 -2016 0
-1994 -2017 0
-1994 -2018 0
-1994 -2019 0
-1994 -2020 0
-1994 -2021 0
-1994 -2022 0
-1994 -2023 0
-1994 -2024 0
-1994 -2025 0
-1994 -2026 0
-1994 -2027 0
-1994 -2028 0
-1994 -2029 0
-1994 -2030 0
-1994 -2031 0
-1994 -2032 0
-1994 -2033 0
-1994 -2034 0
-1994 -2035 0
-1994 -2036 0
-1994 -2037 0
-1994 -2038 0
-1994 -2039 0
-1994 -2040 0
-1994 -2041 0
-1994 -2042 0
-1994 -2043 0
-1994 -2044 0
-1994 -2045 0
-1994 -2046 0
-1994 -2047 0
-1994 -2048 0
-1994 -2049 0
-1994 -2050 0
-1994 -2051 0
-1995 -1996 0
-1995 -1997 0
-1995 -1998 0
-1995 -1999 0
-1995 -2000 0
-1995 -2001 0
-1995 -2002 0
-1995 -2003 0
-1995 -2004 0
-1995 -2005 0
-1995 -2006 0
-1995 -2007 0
-1995 -2008 0
-1995 -2009 0
-1995 -2010 0
-1995 -2011 0
-1995 -2012 0
-1995 -2013 0
-1995 -2014 0
-1995 -2015 0
-1995 -2016 0
-1995 -2017 0
-1995 -2018 0
-1995 -2019 0
-1995 -2020 0
-1995 -2021 0
-1995 -2022 0
-1995 -2023 0
-1995 -2024 0
-1995 -2025 0
-1995 -2026 0
-1995 -2027 0
-1995 -2028 0
-1995 -2029 0
-1995 -2030 0
-1995 -2031 0
-1995 -2032 0
-1995 -2033 0
-1995 -2034 0
-1995 -2035 0
-1995 -2036 0
-1995 -2037 0
-1995 -2038 0
-1995 -2039 0
-1995 -2040 0
-1995 -2041 0
-1995 -2042 0
-1995 -2043 0
-1995 -2044 0
-1995 -2045 0
-1995 -2046 0
-1995 -2047 0
-1995 -2048 0
-1995 -2049 0
-1995 -2050 0
-1995 -2051 0
-1996 -1997 0
-1996 -1998 0
-1996 -1999 0
-1996 -2000 0
-1996 -2001 0
-1996 -2002 0
-1996 -2003 0
-1996 -2004 0
-1996 -2005 0
-1996 -2006 0
-1996 -2007 0
-1996 -2008 0
-1996 -2009 0
-1996 -2010 0
-1996 -2011 0
-1996 -2012 0
-1996 -2013 0
-1996 -2014 0
-1996 -2015 0
-1996 -2016 0
-1996 -2017 0
-1996 -2018 0
-1996 -2019 0
-1996 -2020 0
-1996 -2021 0
-1996 -2022 0
-1996 -2023 0
-1996 -2024 0
-1996 -2025 0
-1996 -2026 0
-1996 -2027 0
-1996 -2028 0
-1996 -2029 0
-1996 -2030 0
-1996 -2031 0
-1996 -2032 0
-1996 -2033 0
-1996 -2034 0
-1996 -2035 0
-1996 -2036 0
-1996 -2037 0
-1996 -2038 0
-1996 -2039 0
-1996 -2040 0
-1996 -2041 0
-1996 -2042 0
-1996 -2043 0
-1996 -2044 0
-1996 -2045 0
-1996 -2046 0
-1996 -2047 0
-1996 -2048 0
-1996 -2049 0
-1996 -2050 0
-1996 -2051 0
-1997 -1998 0
-1997 -1999 0
-1997 -2000 0
-1997 -2001 0
-1997 -2002 0
-1997 -2003 0
-1997 -2004 0
-1997 -2005 0
-1997 -2006 0
-1997 -2007 0
-1997 -2008 0
-1997 -2009 0
-1997 -2010 0
-1997 -2011 0
-1997 -2012 0
-1997 -2013 0
-1997 -2014 0
-1997 -2015 0
-1997 -2016 0
-1997 -2017 0
-1997 -2018 0
-1997 -2019 0
-1997 -2020 0
-1997 -2021 0
-1997 -2022 0
-1997 -2023 0
-1997 -2024 0
-1997 -2025 0
-1997 -2026 0
-1997 -2027 0
-1997 -2028 0
-1997 -2029 0
-1997 -2030 0
-1997 -2031 0
-1997 -2032 0
-1997 -2033 0
-1997 -2034 0
-1997 -2035 0
-1997 -2036 0
-1997 -2037 0
-1997 -2038 0
-1997 -2039 0
-1997 -2040 0
-1997 -2041 0
-1997 -2042 0
-1997 -2043 0
-1997 -2044 0
-1997 -2045 0
-1997 -2046 0
-1997 -2047 0
-1997 -2048 0
-1997 -2049 0
-1997 -2050 0
-1997 -2051 0
-1998 -1999 0
-1998 -2000 0
-1998 -2001 0
-1998 -2002 0
-1998 -2003 0
-1998 -2004 0
-1998 -2005 0
-1998 -2006 0
-1998 -2007 0
-1998 -2008 0
-1998 -2009 0
-1998 -2010 0
-1998 -2011 0
-1998 -2012 0
-1998 -2013 0
-1998 -2014 0
-1998 -2015 0
-1998 -2016 0
-1998 -2017 0
-1998 -2018 0
-1998 -2019 0
-1998 -2020 0
-1998 -2021 0
-1998 -2022 0
-1998 -2023 0
-1998 -2024 0
-1998 -2025 0
-1998 -2026 0
-1998 -2027 0
-1998 -2028 0
-1998 -2029 0
-1998 -2030 0
-1998 -2031 0
-1998 -2032 0
-1998 -2033 0
-1998 -2034 0
-1998 -2035 0
-1998 -2036 0
-1998 -2037 0
-1998 -2038 0
-1998 -2039 0
-1998 -2040 0
-1998 -2041 0
-1998 -2042 0
-1998 -2043 0
-1998 -2044 0
-1998 -2045 0
-1998 -2046 0
-1998 -2047 0
-1998 -2048 0
-1998 -2049 0
-1998 -2050 0
-1998 -2051 0
-1999 -2000 0
-1999 -2001 0
-1999 -2002 0
-1999 -2003 0
-1999 -2004 0
-1999 -2005 0
-1999 -2006 0
-1999 -2007 0
-1999 -2008 0
-1999 -2009 0
-1999 -2010 0
-1999 -2011 0
-1999 -2012 0
-1999 -2013 0
-1999 -2014 0
-1999 -2015 0
-1999 -2016 0
-1999 -2017 0
-1999 -2018 0
-1999 -2019 0
-1999 -2020 0
-1999 -2021 0
-1999 -2022 0
-1999 -2023 0
-1999 -2024 0
-1999 -2025 0
-1999 -2026 0
-1999 -2027 0
-1999 -2028 0
-1999 -2029 0
-1999 -2030 0
-1999 -2031 0
-1999 -2032 0
-1999 -2033 0
-1999 -2034 0
-1999 -2035 0
-1999 -2036 0
-1999 -2037 0
-1999 -2038 0
-1999 -2039 0
-1999 -2040 0
-1999 -2041 0
-1999 -2042 0
-1999 -2043 0
-1999 -2044 0
-1999 -2045 0
-1999 -2046 0
-1999 -2047 0
-1999 -2048 0
-1999 -2049 0
-1999 -2050 0
-1999 -2051 0
-2000 -2001 0
-2000 -2002 0
-2000 -2003 0
-2000 -2004 0
-2000 -2005 0
-2000 -2006 0
-2000 -2007 0
-2000 -2008 0
-2000 -2009 0
-2000 -2010 0
-2000 -2011 0
-2000 -2012 0
-2000 -2013 0
-2000 -2014 0
-2000 -2015 0
-2000 -2016 0
-2000 -2017 0
-2000 -2018 0
-2000 -2019 0
-2000 -2020 0
-2000 -2021 0
-2000 -2022 0
-2000 -2023 0
-2000 -2024 0
-2000 -2025 0
-2000 -2026 0
-2000 -2027 0
-2000 -2028 0
-2000 -2029 0
-2000 -2030 0
-2000 -2031 0
-2000 -2032 0
-2000 -2033 0
-2000 -2034 0
-2000 -2035 0
-2000 -2036 0
-2000 -2037 0
-2000 -2038 0
-2000 -2039 0
-2000 -2040 0
-2000 -2041 0
-2000 -2042 0
-2000 -2043 0
-2000 -2044 0
-2000 -2045 0
-2000 -2046 0
-2000 -2047 0
-2000 -2048 0
-2000 -2049 0
-2000 -2050 0
-2000 -2051 0
-2001 -2002 0
-2001 -2003 0
-2001 -2004 0
-2001 -2005 0
-2001 -2006 0
-2001 -2007 0
-2001 -2008 0
-2001 -2009 0
-2001 -2010 0
-2001 -2011 0
-2001 -2012 0
-2001 -2013 0
-2001 -2014 0
-2001 -2015 0
-2001 -2016 0
-2001 -2017 0
-2001 -2018 0
-2001 -2019 0
-2001 -2020 0
-2001 -2021 0
-2001 -2022 0
-2001 -2023 0
-2001 -2024 0
-2001 -2025 0
-2001 -2026 0
-2001 -2027 0
-2001 -2028 0
-2001 -2029 0
-2001 -2030 0
-2001 -2031 0
-2001 -2032 0
-2001 -2033 0
-2001 -2034 0
-2001 -2035 0
-2001 -2036 0
-2001 -2037 0
-2001 -2038 0
-2001 -2039 0
-2001 -2040 0
-2001 -2041 0
-2001 -2042 0
-2001 -2043 0
-2001 -2044 0
-2001 -2045 0
-2001 -2046 0
-2001 -2047 0
-2001 -2048 0
-2001 -2049 0
-2001 -2050 0
-2001 -2051 0
-2002 -2003 0
-2002 -2004 0
-2002 -2005 0
-2002 -2006 0
-2002 -2007 0
-2002 -2008 0
-2002 -2009 0
-2002 -2010 0
-2002 -2011 0
-2002 -2012 0
-2002 -2013 0
-2002 -2014 0
-2002 -2015 0
-2002 -2016 0
-2002 -2017 0
-2002 -2018 0
-2002 -2019 0
-2002 -2020 0
-2002 -2021 0
-2002 -2022 0
-2002 -2023 0
-2002 -2024 0
-2002 -2025 0
-2002 -2026 0
-2002 -2027 0
-2002 -2028 0
-2002 -2029 0
-2002 -2030 0
-2002 -2031 0
-2002 -2032 0
-2002 -2033 0
-2002 -2034 0
-2002 -2035 0
-2002 -2036 0
-2002 -2037 0
-2002 -2038 0
-2002 -2039 0
-2002 -2040 0
-2002 -2041 0
-2002 -2042 0
-2002 -2043 0
-2002 -2044 0
-2002 -2045 0
-2002 -2046 0
-2002 -2047 0
-2002 -2048 0
-2002 -2049 0
-2002 -2050 0
-2002 -2051 0
-2003 -2004 0
-2003 -2005 0
-2003 -2006 0
-2003 -2007 0
-2003 -2008 0
-2003 -2009 0
-2003 -2010 0
-2003 -2011 0
-2003 -2012 0
-2003 -2013 0
-2003 -2014 0
-2003 -2015 0
-2003 -2016 0
-2003 -2017 0
-2003 -2018 0
-2003 -2019 0
-2003 -2020 0
-2003 -2021 0
-2003 -2022 0
-2003 -2023 0
-2003 -2024 0
-2003 -2025 0
-2003 -2026 0
-2003 -2027 0
-2003 -2028 0
-2003 -2029 0
-2003 -2030 0
-2003 -2031 0
-2003 -2032 0
-2003 -2033 0
-2003 -2034 0
-2003 -2035 0
-2003 -2036 0
-2003 -2037 0
-2003 -2038 0
-2003 -2039 0
-2003 -2040 0
-2003 -2041 0
-2003 -2042 0
-2003 -2043 0
-2003 -2044 0
-2003 -2045 0
-2003 -2046 0
-2003 -2047 0
-2003 -2048 0
-2003 -2049 0
-2003 -2050 0
-2003 -2051 0
-2004 -2005 0
-2004 -2006 0
-2004 -2007 0
-2004 -2008 0
-2004 -2009 0
-2004 -2010 0
-2004 -2011 0
-2004 -2012 0
-2004 -2013 0
-2004 -2014 0
-2004 -2015 0
-2004 -2016 0
-2004 -2017 0
-2004 -2018 0
-2004 -2019 0
-2004 -2020 0
-2004 -2021 0
-2004 -2022 0
-2004 -2023 0
-2004 -2024 0
-2004 -2025 0
-2004 -2026 0
-2004 -2027 0
-2004 -2028 0
-2004 -2029 0
-2004 -2030 0
-2004 -2031 0
-2004 -2032 0
-2004 -2033 0
-2004 -2034 0
-2004 -2035 0
-2004 -2036 0
-2004 -2037 0
-2004 -2038 0
-2004 -2039 0
-2004 -2040 0
-2004 -2041 0
-2004 -2042 0
-2004 -2043 0
-2004 -2044 0
-2004 -2045 0
-2004 -2046 0
-2004 -2047 0
-2004 -2048 0
-2004 -2049 0
-2004 -2050 0
-2004 -2051 0
-2005 -2006 0
-2005 -2007 0
-2005 -2008 0
-2005 -2009 0
-2005 -2010 0
-2005 -2011 0
-2005 -2012 0
-2005 -2013 0
-2005 -2014 0
-2005 -2015 0
-2005 -2016 0
-2005 -2017 0
-2005 -2018 0
-2005 -2019 0
-2005 -2020 0
-2005 -2021 0
-2005 -2022 0
-2005 -2023 0
-2005 -2024 0
-2005 -2025 0
-2005 -2026 0
-2005 -2027 0
-2005 -2028 0
-2005 -2029 0
-2005 -2030 0
-2005 -2031 0
-2005 -2032 0
-2005 -2033 0
-2005 -2034 0
-2005 -2035 0
-2005 -2036 0
-2005 -2037 0
-2005 -2038 0
-2005 -2039 0
-2005 -2040 0
-2005 -2041 0
-2005 -2042 0
-2005 -2043 0
-2005 -2044 0
-2005 -2045 0
-2005 -2046 0
-2005 -2047 0
-2005 -2048 0
-2005 -2049 0
-2005 -2050 0
-2005 -2051 0
-2006 -2007 0
-2006 -2008 0
-2006 -2009 0
-2006 -2010 0
-2006 -2011 0
-2006 -2012 0
-2006 -2013 0
-2006 -2014 0
-2006 -2015 0
-2006 -2016 0
-2006 -2017 0
-2006 -2018 0
-2006 -2019 0
-2006 -2020 0
-2006 -2021 0
-2006 -2022 0
-2006 -2023 0
-2006 -2024 0
-2006 -2025 0
-2006 -2026 0
-2006 -2027 0
-2006 -2028 0
-2006 -2029 0
-2006 -2030 0
-2006 -2031 0
-2006 -2032 0
-2006 -2033 0
-2006 -2034 0
-2006 -2035 0
-2006 -2036 0
-2006 -2037 0
-2006 -2038 0
-2006 -2039 0
-2006 -2040 0
-2006 -2041 0
-2006 -2042 0
-2006 -2043 0
-2006 -2044 0
-2006 -2045 0
-2006 -2046 0
-2006 -2047 0
-2006 -2048 0
-2006 -2049 0
-2006 -2050 0
-2006 -2051 0
-2007 -2008 0
-2007 -2009 0
-2007 -2010 0
-2007 -2011 0
-2007 -2012 0
-2007 -2013 0
-2007 -2014 0
-2007 -2015 0
-2007 -2016 0
-2007 -2017 0
-2007 -2018 0
-2007 -2019 0
-2007 -2020 0
-2007 -2021 0
-2007 -2022 0
-2007 -2023 0
-2007 -2024 0
-2007 -2025 0
-2007 -2026 0
-2007 -2027 0
-2007 -2028 0
-2007 -2029 0
-2007 -2030 0
-2007 -2031 0
-2007 -2032 0
-2007 -2033 0
-2007 -2034 0
-2007 -2035 0
-2007 -2036 0
-2007 -2037 0
-2007 -2038 0
-2007 -2039 0
-2007 -2040 0
-2007 -2041 0
-2007 -2042 0
-2007 -2043 0
-2007 -2044 0
-2007 -2045 0
-2007 -2046 0
-2007 -2047 0
-2007 -2048 0
-2007 -2049 0
-2007 -2050 0
-2007 -2051 0
-2008 -2009 0
-2008 -2010 0
-2008 -2011 0
-2008 -2012 0
-2008 -2013 0
-2008 -2014 0
-2008 -2015 0
-2008 -2016 0
-2008 -2017 0
-2008 -2018 0
-2008 -2019 0
-2008 -2020 0
-2008 -2021 0
-2008 -2022 0
-2008 -2023 0
-2008 -2024 0
-2008 -2025 0
-2008 -2026 0
-2008 -2027 0
-2008 -2028 0
-2008 -2029 0
-2008 -2030 0
-2008 -2031 0
-2008 -2032 0
-2008 -2033 0
-2008 -2034 0
-2008 -2035 0
-2008 -2036 0
-2008 -2037 0
-2008 -2038 0
-2008 -2039 0
-2008 -2040 0
-2008 -2041 0
-2008 -2042 0
-2008 -2043 0
-2008 -2044 0
-2008 -2045 0
-2008 -2046 0
-2008 -2047 0
-2008 -2048 0
-2008 -2049 0
-2008 -2050 0
-2008 -2051 0
-2009 -2010 0
-2009 -2011 0
-2009 -2012 0
-2009 -2013 0
-2009 -2014 0
-2009 -2015 0
-2009 -2016 0
-2009 -2017 0
-2009 -2018 0
-2009 -2019 0
-2009 -2020 0
-2009 -2021 0
-2009 -2022 0
-2009 -2023 0
-2009 -2024 0
-2009 -2025 0
-2009 -2026 0
-2009 -2027 0
-2009 -2028 0
-2009 -2029 0
-2009 -2030 0
-2009 -2031 0
-2009 -2032 0
-2009 -2033 0
-2009 -2034 0
-2009 -2035 0
-2009 -2036 0
-2009 -2037 0
-2009 -2038 0
-2009 -2039 0
-2009 -2040 0
-2009 -2041 0
-2009 -2042 0
-2009 -2043 0
-2009 -2044 0
-2009 -2045 0
-2009 -2046 0
-2009 -2047 0
-2009 -2048 0
-2009 -2049 0
-2009 -2050 0
-2009 -2051 0
-2010 -2011 0
-2010 -2012 0
-2010 -2013 0
-2010 -2014 0
-2010 -2015 0
-2010 -2016 0
-2010 -2017 0
-2010 -2018 0
-2010 -2019 0
-2010 -2020 0
-2010 -2021 0
-2010 -2022 0
-2010 -2023 0
-2010 -2024 0
-2010 -2025 0
-2010 -2026 0
-2010 -2027 0
-2010 -2028 0
-2010 -2029 0
-2010 -2030 0
-2010 -2031 0
-2010 -2032 0
-2010 -2033 0
-2010 -2034 0
-2010 -2035 0
-2010 -2036 0
-2010 -2037 0
-2010 -2038 0
-2010 -2039 0
-2010 -2040 0
-2010 -2041 0
-2010 -2042 0
-2010 -2043 0
-2010 -2044 0
-2010 -2045 0
-2010 -2046 0
-2010 -2047 0
-2010 -2048 0
-2010 -2049 0
-2010 -2050 0
-2010 -2051 0
-2011 -2012 0
-2011 -2013 0
-2011 -2014 0
-2011 -2015 0
-2011 -2016 0
-2011 -2017 0
-2011 -2018 0
-2011 -2019 0
-2011 -2020 0
-2011 -2021 0
-2011 -2022 0
-2011 -2023 0
-2011 -2024 0
-2011 -2025 0
-2011 -2026 0
-2011 -2027 0
-2011 -2028 0
-2011 -2029 0
-2011 -2030 0
-2011 -2031 0
-2011 -2032 0
-2011 -2033 0
-2011 -2034 0
-2011 -2035 0
-2011 -2036 0
-2011 -2037 0
-2011 -2038 0
-2011 -2039 0
-2011 -2040 0
-2011 -2041 0
-2011 -2042 0
-2011 -2043 0
-2011 -2044 0
-2011 -2045 0
-2011 -2046 0
-2011 -2047 0
-2011 -2048 0
-2011 -2049 0
-2011 -2050 0
-2011 -2051 0
-2012 -2013 0
-2012 -2014 0
-2012 -2015 0
-2012 -2016 0
-2012 -2017 0
-2012 -2018 0
-2012 -2019 0
-2012 -2020 0
-2012 -2021 0
-2012 -2022 0
-2012 -2023 0
-2012 -2024 0
-2012 -2025 0
-2012 -2026 0
-2012 -2027 0
-2012 -2028 0
-2012 -2029 0
-2012 -2030 0
-2012 -2031 0
-2012 -2032 0
-2012 -2033 0
-2012 -2034 0
-2012 -2035 0
-2012 -2036 0
-2012 -2037 0
-2012 -2038 0
-2012 -2039 0
-2012 -2040 0
-2012 -2041 0
-2012 -2042 0
-2012 -2043 0
-2012 -2044 0
-2012 -2045 0
-2012 -2046 0
-2012 -2047 0
-2012 -2048 0
-2012 -2049 0
-2012 -2050 0
-2012 -2051 0
-2013 -2014 0
-2013 -2015 0
-2013 -2016 0
-2013 -2017 0
-2013 -2018 0
-2013 -2019 0
-2013 -2020 0
-2013 -2021 0
-2013 -2022 0
-2013 -2023 0
-2013 -2024 0
-2013 -2025 0
-2013 -2026 0
-2013 -2027 0
-2013 -2028 0
-2013 -2029 0
-2013 -2030 0
-2013 -2031 0
-2013 -2032 0
-2013 -2033 0
-2013 -2034 0
-2013 -2035 0
-2013 -2036 0
-2013 -2037 0
-2013 -2038 0
-2013 -2039 0
-2013 -2040 0
-2013 -2041 0
-2013 -2042 0
-2013 -2043 0
-2013 -2044 0
-2013 -2045 0
-2013 -2046 0
-2013 -2047 0
-2013 -2048 0
-2013 -2049 0
-2013 -2050 0
-2013 -2051 0
-2014 -2015 0
-2014 -2016 0
-2014 -2017 0
-2014 -2018 0
-2014 -2019 0
-2014 -2020 0
-2014 -2021 0
-2014 -2022 0
-2014 -2023 0
-2014 -2024 0
-2014 -2025 0
-2014 -2026 0
-2014 -2027 0
-2014 -2028 0
-2014 -2029 0
-2014 -2030 0
-2014 -2031 0
-2014 -2032 0
-2014 -2033 0
-2014 -2034 0
-2014 -2035 0
-2014 -2036 0
-2014 -2037 0
-2014 -2038 0
-2014 -2039 0
-2014 -2040 0
-2014 -2041 0
-2014 -2042 0
-2014 -2043 0
-2014 -2044 0
-2014 -2045 0
-2014 -2046 0
-2014 -2047 0
-2014 -2048 0
-2014 -2049 0
-2014 -2050 0
-2014 -2051 0
-2015 -2016 0
-2015 -2017 0
-2015 -2018 0
-2015 -2019 0
-2015 -2020 0
-2015 -2021 0
-2015 -2022 0
-2015 -2023 0
-2015 -2024 0
-2015 -2025 0
-2015 -2026 0
-2015 -2027 0
-2015 -2028 0
-2015 -2029 0
-2015 -2030 0
-2015 -2031 0
-2015 -2032 0
-2015 -2033 0
-2015 -2034 0
-2015 -2035 0
-2015 -2036 0
-2015 -2037 0
-2015 -2038 0
-2015 -2039 0
-2015 -2040 0
-2015 -2041 0
-2015 -2042 0
-2015 -2043 0
-2015 -2044 0
-2015 -2045 0
-2015 -2046 0
-2015 -2047 0
-2015 -2048 0
-2015 -2049 0
-2015 -2050 0
-2015 -2051 0
-2016 -2017 0
-2016 -2018 0
-2016 -2019 0
-2016 -2020 0
-2016 -2021 0
-2016 -2022 0
-2016 -2023 0
-2016 -2024 0
-2016 -2025 0
-2016 -2026 0
-2016 -2027 0
-2016 -2028 0
-2016 -2029 0
-2016 -2030 0
-2016 -2031 0
-2016 -2032 0
-2016 -2033 0
-2016 -2034 0
-2016 -2035 0
-2016 -2036 0
-2016 -2037 0
-2016 -2038 0
-2016 -2039 0
-2016 -2040 0
-2016 -2041 0
-2016 -2042 0
-2016 -2043 0
-2016 -2044 0
-2016 -2045 0
-2016 -2046 0
-2016 -2047 0
-2016 -2048 0
-2016 -2049 0
-2016 -2050 0
-2016 -2051 0
-2017 -2018 0
-2017 -2019 0
-2017 -2020 0
-2017 -2021 0
-2017 -2022 0
-2017 -2023 0
-2017 -2024 0
-2017 -2025 0
-2017 -2026 0
-2017 -2027 0
-2017 -2028 0
-2017 -2029 0
-2017 -2030 0
-2017 -2031 0
-2017 -2032 0
-2017 -2033 0
-2017 -2034 0
-2017 -2035 0
-2017 -2036 0
-2017 -2037 0
-2017 -2038 0
-2017 -2039 0
-2017 -2040 0
-2017 -2041 0
-2017 -2042 0
-2017 -2043 0
-2017 -2044 0
-2017 -2045 0
-2017 -2046 0
-2017 -2047 0
-2017 -2048 0
-2017 -2049 0
-2017 -2050 0
-2017 -2051 0
-2018 -2019 0
-2018 -2020 0
-2018 -2021 0
-2018 -2022 0
-2018 -2023 0
-2018 -2024 0
-2018 -2025 0
-2018 -2026 0
-2018 -2027 0
-2018 -2028 0
-2018 -2029 0
-2018 -2030 0
-2018 -2031 0
-2018 -2032 0
-2018 -2033 0
-2018 -2034 0
-2018 -2035 0
-2018 -2036 0
-2018 -2037 0
-2018 -2038 0
-2018 -2039 0
-2018 -2040 0
-2018 -2041 0
-2018 -2042 0
-2018 -2043 0
-2018 -2044 0
-2018 -2045 0
-2018 -2046 0
-2018 -2047 0
-2018 -2048 0
-2018 -2049 0
-2018 -2050 0
-2018 -2051 0
-2019 -2020 0
-2019 -2021 0
-2019 -2022 0
-2019 -2023 0
-2019 -2024 0
-2019 -2025 0
-2019 -2026 0
-2019 -2027 0
-2019 -2028 0
-2019 -2029 0
-2019 -2030 0
-2019 -2031 0
-2019 -2032 0
-2019 -2033 0
-2019 -2034 0
-2019 -2035 0
-2019 -2036 0
-2019 -2037 0
-2019 -2038 0
-2019 -2039 0
-2019 -2040 0
-2019 -2041 0
-2019 -2042 0
-2019 -2043 0
-2019 -2044 0
-2019 -2045 0
-2019 -2046 0
-2019 -2047 0
-2019 -2048 0
-2019 -2049 0
-2019 -2050 0
-2019 -2051 0
-2020 -2021 0
-2020 -2022 0
-2020 -2023 0
-2020 -2024 0
-2020 -2025 0
-2020 -2026 0
-2020 -2027 0
-2020 -2028 0
-2020 -2029 0
-2020 -2030 0
-2020 -2031 0
-2020 -2032 0
-2020 -2033 0
-2020 -2034 0
-2020 -2035 0
-2020 -2036 0
-2020 -2037 0
-2020 -2038 0
-2020 -2039 0
-2020 -2040 0
-2020 -2041 0
-2020 -2042 0
-2020 -2043 0
-2020 -2044 0
-2020 -2045 0
-2020 -2046 0
-2020 -2047 0
-2020 -2048 0
-2020 -2049 0
-2020 -2050 0
-2020 -2051 0
-2021 -2022 0
-2021 -2023 0
-2021 -2024 0
-2021 -2025 0
-2021 -2026 0
-2021 -2027 0
-2021 -2028 0
-2021 -2029 0
-2021 -2030 0
-2021 -2031 0
-2021 -2032 0
-2021 -2033 0
-2021 -2034 0
-2021 -2035 0
-2021 -2036 0
-2021 -2037 0
-2021 -2038 0
-2021 -2039 0
-2021 -2040 0
-2021 -2041 0
-2021 -2042 0
-2021 -2043 0
-2021 -2044 0
-2021 -2045 0
-2021 -2046 0
-2021 -2047 0
-2021 -2048 0
-2021 -2049 0
-2021 -2050 0
-2021 -2051 0
-2022 -2023 0
-2022 -2024 0
-2022 -2025 0
-2022 -2026 0
-2022 -2027 0
-2022 -2028 0
-2022 -2029 0
-2022 -2030 0
-2022 -2031 0
-2022 -2032 0
-2022 -2033 0
-2022 -2034 0
-2022 -2035 0
-2022 -2036 0
-2022 -2037 0
-2022 -2038 0
-2022 -2039 0
-2022 -2040 0
-2022 -2041 0
-2022 -2042 0
-2022 -2043 0
-2022 -2044 0
-2022 -2045 0
-2022 -2046 0
-2022 -2047 0
-2022 -2048 0
-2022 -2049 0
-2022 -2050 0
-2022 -2051 0
-2023 -2024 0
-2023 -2025 0
-2023 -2026 0
-2023 -2027 0
-2023 -2028 0
-2023 -2029 0
-2023 -2030 0
-2023 -2031 0
-2023 -2032 0
-2023 -2033 0
-2023 -2034 0
-2023 -2035 0
-2023 -2036 0
-2023 -2037 0
-2023 -2038 0
-2023 -2039 0
-2023 -2040 0
-2023 -2041 0
-2023 -2042 0
-2023 -2043 0
-2023 -2044 0
-2023 -2045 0
-2023 -2046 0
-2023 -2047 0
-2023 -2048 0
-2023 -2049 0
-2023 -2050 0
-2023 -2051 0
-2024 -2025 0
-2024 -2026 0
-2024 -2027 0
-2024 -2028 0
-2024 -2029 0
-2024 -2030 0
-2024 -2031 0
-2024 -2032 0
-2024 -2033 0
-2024 -2034 0
-2024 -2035 0
-2024 -2036 0
-2024 -2037 0
-2024 -2038 0
-2024 -2039 0
-2024 -2040 0
-2024 -2041 0
-2024 -2042 0
-2024 -2043 0
-2024 -2044 0
-2024 -2045 0
-2024 -2046 0
-2024 -2047 0
-2024 -2048 0
-2024 -2049 0
-2024 -2050 0
-2024 -2051 0
-2025 -2026 0
-2025 -2027 0
-2025 -2028 0
-2025 -2029 0
-2025 -2030 0
-2025 -2031 0
-2025 -2032 0
-2025 -2033 0
-2025 -2034 0
-2025 -2035 0
-2025 -2036 0
-2025 -2037 0
-2025 -2038 0
-2025 -2039 0
-2025 -2040 0
-2025 -2041 0
-2025 -2042 0
-2025 -2043 0
-2025 -2044 0
-2025 -2045 0
-2025 -2046 0
-2025 -2047 0
-2025 -2048 0
-2025 -2049 0
-2025 -2050 0
-2025 -2051 0
-2026 -2027 0
-2026 -2028 0
-2026 -2029 0
-2026 -2030 0
-2026 -2031 0
-2026 -2032 0
-2026 -2033 0
-2026 -2034 0
-2026 -2035 0
-2026 -2036 0
-2026 -2037 0
-2026 -2038 0
-2026 -2039 0
-2026 -2040 0
-2026 -2041 0
-2026 -2042 0
-2026 -2043 0
-2026 -2044 0
-2026 -2045 0
-2026 -2046 0
-2026 -2047 0
-2026 -2048 0
-2026 -2049 0
-2026 -2050 0
-2026 -2051 0
-2027 -2028 0
-2027 -2029 0
-2027 -2030 0
-2027 -2031 0
-2027 -2032 0
-2027 -2033 0
-2027 -2034 0
-2027 -2035 0
-2027 -2036 0
-2027 -2037 0
-2027 -2038 0
-2027 -2039 0
-2027 -2040 0
-2027 -2041 0
-2027 -2042 0
-2027 -2043 0
-2027 -2044 0
-2027 -2045 0
-2027 -2046 0
-2027 -2047 0
-2027 -2048 0
-2027 -2049 0
-2027 -2050 0
-2027 -2051 0
-2028 -2029 0
-2028 -2030 0
-2028 -2031 0
-2028 -2032 0
-2028 -2033 0
-2028 -2034 0
-2028 -2035 0
-2028 -2036 0
-2028 -2037 0
-2028 -2038 0
-2028 -2039 0
-2028 -2040 0
-2028 -2041 0
-2028 -2042 0
-2028 -2043 0
-2028 -2044 0
-2028 -2045 0
-2028 -2046 0
-2028 -2047 0
-2028 -2048 0
-2028 -2049 0
-2028 -2050 0
-2028 -2051 0
-2029 -2030 0
-2029 -2031 0
-2029 -2032 0
-2029 -2033 0
-2029 -2034 0
-2029 -2035 0
-2029 -2036 0
-2029 -2037 0
-2029 -2038 0
-2029 -2039 0
-2029 -2040 0
-2029 -2041 0
-2029 -2042 0
-2029 -2043 0
-2029 -2044 0
-2029 -2045 0
-2029 -2046 0
-2029 -2047 0
-2029 -2048 0
-2029 -2049 0
-2029 -2050 0
-2029 -2051 0
-2030 -2031 0
-2030 -2032 0
-2030 -2033 0
-2030 -2034 0
-2030 -2035 0
-2030 -2036 0
-2030 -2037 0
-2030 -2038 0
-2030 -2039 0
-2030 -2040 0
-2030 -2041 0
-2030 -2042 0
-2030 -2043 0
-2030 -2044 0
-2030 -2045 0
-2030 -2046 0
-2030 -2047 0
-2030 -2048 0
-2030 -2049 0
-2030 -2050 0
-2030 -2051 0
-2031 -2032 0
-2031 -2033 0
-2031 -2034 0
-2031 -2035 0
-2031 -2036 0
-2031 -2037 0
-2031 -2038 0
-2031 -2039 0
-2031 -2040 0
-2031 -2041 0
-2031 -2042 0
-2031 -2043 0
-2031 -2044 0
-2031 -2045 0
-2031 -2046 0
-2031 -2047 0
-2031 -2048 0
-2031 -2049 0
-2031 -2050 0
-2031 -2051 0
-2032 -2033 0
-2032 -2034 0
-2032 -2035 0
-2032 -2036 0
-2032 -2037 0
-2032 -2038 0
-2032 -2039 0
-2032 -2040 0
-2032 -2041 0
-2032 -2042 0
-2032 -2043 0
-2032 -2044 0
-2032 -2045 0
-2032 -2046 0
-2032 -2047 0
-2032 -2048 0
-2032 -2049 0
-2032 -2050 0
-2032 -2051 0
-2033 -2034 0
-2033 -2035 0
-2033 -2036 0
-2033 -2037 0
-2033 -2038 0
-2033 -2039 0
-2033 -2040 0
-2033 -2041 0
-2033 -2042 0
-2033 -2043 0
-2033 -2044 0
-2033 -2045 0
-2033 -2046 0
-2033 -2047 0
-2033 -2048 0
-2033 -2049 0
-2033 -2050 0
-2033 -2051 0
-2034 -2035 0
-2034 -2036 0
-2034 -2037 0
-2034 -2038 0
-2034 -2039 0
-2034 -2040 0
-2034 -2041 0
-2034 -2042 0
-2034 -2043 0
-2034 -2044 0
-2034 -2045 0
-2034 -2046 0
-2034 -2047 0
-2034 -2048 0
-2034 -2049 0
-2034 -2050 0
-2034 -2051 0
-2035 -2036 0
-2035 -2037 0
-2035 -2038 0
-2035 -2039 0
-2035 -2040 0
-2035 -2041 0
-2035 -2042 0
-2035 -2043 0
-2035 -2044 0
-2035 -2045 0
-2035 -2046 0
-2035 -2047 0
-2035 -2048 0
-2035 -2049 0
-2035 -2050 0
-2035 -2051 0
-2036 -2037 0
-2036 -2038 0
-2036 -2039 0
-2036 -2040 0
-2036 -2041 0
-2036 -2042 0
-2036 -2043 0
-2036 -2044 0
-2036 -2045 0
-2036 -2046 0
-2036 -2047 0
-2036 -2048 0
-2036 -2049 0
-2036 -2050 0
-2036 -2051 0
-2037 -2038 0
-2037 -2039 0
-2037 -2040 0
-2037 -2041 0
-2037 -2042 0
-2037 -2043 0
-2037 -2044 0
-2037 -2045 0
-2037 -2046 0
-2037 -2047 0
-2037 -2048 0
-2037 -2049 0
-2037 -2050 0
-2037 -2051 0
-2038 -2039 0
-2038 -2040 0
-2038 -2041 0
-2038 -2042 0
-2038 -2043 0
-2038 -2044 0
-2038 -2045 0
-2038 -2046 0
-2038 -2047 0
-2038 -2048 0
-2038 -2049 0
-2038 -2050 0
-2038 -2051 0
-2039 -2040 0
-2039 -2041 0
-2039 -2042 0
-2039 -2043 0
-2039 -2044 0
-2039 -2045 0
-2039 -2046 0
-2039 -2047 0
-2039 -2048 0
-2039 -2049 0
-2039 -2050 0
-2039 -2051 0
-2040 -2041 0
-2040 -2042 0
-2040 -2043 0
-2040 -2044 0
-2040 -2045 0
-2040 -2046 0
-2040 -2047 0
-2040 -2048 0
-2040 -2049 0
-2040 -2050 0
-2040 -2051 0
-2041 -2042 0
-2041 -2043 0
-2041 -2044 0
-2041 -2045 0
-2041 -2046 0
-2041 -2047 0
-2041 -2048 0
-2041 -2049 0
-2041 -2050 0
-2041 -2051 0
-2042 -2043 0
-2042 -2044 0
-2042 -2045 0
-2042 -2046 0
-2042 -2047 0
-2042 -2048 0
-2042 -2049 0
-2042 -2050 0
-2042 -2051 0
-2043 -2044 0
-2043 -2045 0
-2043 -2046 0
-2043 -2047 0
-2043 -2048 0
-2043 -2049 0
-2043 -2050 0
-2043 -2051 0
-2044 -2045 0
-2044 -2046 0
-2044 -2047 0
-2044 -2048 0
-2044 -2049 0
-2044 -2050 0
-2044 -2051 0
-2045 -2046 0
-2045 -2047 0
-2045 -2048 0
-2045 -2049 0
-2045 -2050 0
-2045 -2051 0
-2046 -2047 0
-2046 -2048 0
-2046 -2049 0
-2046 -2050 0
-2046 -2051 0
-2047 -2048 0
-2047 -2049 0
-2047 -2050 0
-2047 -2051 0
-2048 -2049 0
-2048 -2050 0
-2048 -2051 0
-2049 -2050 0
-2049 -2051 0
-2050 -2051 0
