p cnf 1441 28873
1 2 3 4 5 6 0
-1 -2 0
-1 -3 0
-1 -4 0
-1 -5 0
-1 -6 0
-2 -3 0
-2 -4 0
-2 -5 0
-2 -6 0
-3 -4 0
-3 -5 0
-3 -6 0
-4 -5 0
-4 -6 0
-5 -6 0
7 14 21 28 0
-7 -14 0
-7 -21 0
-7 -28 0
-14 -21 0
-14 -28 0
-21 -28 0
60 61 62 63 64 65 0
-60 -61 0
-60 -62 0
-60 -63 0
-60 -64 0
-60 -65 0
-61 -62 0
-61 -63 0
-61 -64 0
-61 -65 0
-62 -63 0
-62 -64 0
-62 -65 0
-63 -64 0
-63 -65 0
-64 -65 0
66 73 80 87 0
-66 -73 0
-66 -80 0
-66 -87 0
-73 -80 0
-73 -87 0
-80 -87 0
119 120 121 122 123 0
-119 -120 0
-119 -121 0
-119 -122 0
-119 -123 0
-120 -121 0
-120 -122 0
-120 -123 0
-121 -122 0
-121 -123 0
-122 -123 0
124 130 136 142 0
-124 -130 0
-124 -136 0
-124 -142 0
-130 -136 0
-130 -142 0
-136 -142 0
173 174 175 176 0
-173 -174 0
-173 -175 0
-173 -176 0
-174 -175 0
-174 -176 0
-175 -176 0
177 182 187 192 0
-177 -182 0
-177 -187 0
-177 -192 0
-182 -187 0
-182 -192 0
-187 -192 0
222 223 224 225 226 227 0
-222 -223 0
-222 -224 0
-222 -225 0
-222 -226 0
-222 -227 0
-223 -224 0
-223 -225 0
-223 -226 0
-223 -227 0
-224 -225 0
-224 -226 0
-224 -227 0
-225 -226 0
-225 -227 0
-226 -227 0
228 235 242 249 0
-228 -235 0
-228 -242 0
-228 -249 0
-235 -242 0
-235 -249 0
-242 -249 0
281 282 283 284 285 286 0
-281 -282 0
-281 -283 0
-281 -284 0
-281 -285 0
-281 -286 0
-282 -283 0
-282 -284 0
-282 -285 0
-282 -286 0
-283 -284 0
-283 -285 0
-283 -286 0
-284 -285 0
-284 -286 0
-285 -286 0
287 294 301 308 0
-287 -294 0
-287 -301 0
-287 -308 0
-294 -301 0
-294 -308 0
-301 -308 0
340 341 342 343 344 0
-340 -341 0
-340 -342 0
-340 -343 0
-340 -344 0
-341 -342 0
-341 -343 0
-341 -344 0
-342 -343 0
-342 -344 0
-343 -344 0
345 351 357 363 0
-345 -351 0
-345 -357 0
-345 -363 0
-351 -357 0
-351 -363 0
-357 -363 0
394 395 396 397 0
-394 -395 0
-394 -396 0
-394 -397 0
-395 -396 0
-395 -397 0
-396 -397 0
398 403 408 413 0
-398 -403 0
-398 -408 0
-398 -413 0
-403 -408 0
-403 -413 0
-408 -413 0
443 444 445 446 447 448 0
-443 -444 0
-443 -445 0
-443 -446 0
-443 -447 0
-443 -448 0
-444 -445 0
-444 -446 0
-444 -447 0
-444 -448 0
-445 -446 0
-445 -447 0
-445 -448 0
-446 -447 0
-446 -448 0
-447 -448 0
449 456 463 470 0
-449 -456 0
-449 -463 0
-449 -470 0
-456 -463 0
-456 -470 0
-463 -470 0
502 503 504 505 506 507 0
-502 -503 0
-502 -504 0
-502 -505 0
-502 -506 0
-502 -507 0
-503 -504 0
-503 -505 0
-503 -506 0
-503 -507 0
-504 -505 0
-504 -506 0
-504 -507 0
-505 -506 0
-505 -507 0
-506 -507 0
508 515 522 529 0
-508 -515 0
-508 -522 0
-508 -529 0
-515 -522 0
-515 -529 0
-522 -529 0
561 562 563 564 565 0
-561 -562 0
-561 -563 0
-561 -564 0
-561 -565 0
-562 -563 0
-562 -564 0
-562 -565 0
-563 -564 0
-563 -565 0
-564 -565 0
566 572 578 584 0
-566 -572 0
-566 -578 0
-566 -584 0
-572 -578 0
-572 -584 0
-578 -584 0
615 616 617 618 0
-615 -616 0
-615 -617 0
-615 -618 0
-616 -617 0
-616 -618 0
-617 -618 0
619 624 629 634 0
-619 -624 0
-619 -629 0
-619 -634 0
-624 -629 0
-624 -634 0
-629 -634 0
664 665 666 667 668 669 0
-664 -665 0
-664 -666 0
-664 -667 0
-664 -668 0
-664 -669 0
-665 -666 0
-665 -667 0
-665 -668 0
-665 -669 0
-666 -667 0
-666 -668 0
-666 -669 0
-667 -668 0
-667 -669 0
-668 -669 0
670 677 684 691 0
-670 -677 0
-670 -684 0
-670 -691 0
-677 -684 0
-677 -691 0
-684 -691 0
723 724 725 726 727 728 0
-723 -724 0
-723 -725 0
-723 -726 0
-723 -727 0
-723 -728 0
-724 -725 0
-724 -726 0
-724 -727 0
-724 -728 0
-725 -726 0
-725 -727 0
-725 -728 0
-726 -727 0
-726 -728 0
-727 -728 0
729 736 743 750 0
-729 -736 0
-729 -743 0
-729 -750 0
-736 -743 0
-736 -750 0
-743 -750 0
782 783 784 785 786 0
-782 -783 0
-782 -784 0
-782 -785 0
-782 -786 0
-783 -784 0
-783 -785 0
-783 -786 0
-784 -785 0
-784 -786 0
-785 -786 0
787 793 799 805 0
-787 -793 0
-787 -799 0
-787 -805 0
-793 -799 0
-793 -805 0
-799 -805 0
836 837 838 839 0
-836 -837 0
-836 -838 0
-836 -839 0
-837 -838 0
-837 -839 0
-838 -839 0
840 845 850 855 0
-840 -845 0
-840 -850 0
-840 -855 0
-845 -850 0
-845 -855 0
-850 -855 0
885 886 887 888 889 890 0
-885 -886 0
-885 -887 0
-885 -888 0
-885 -889 0
-885 -890 0
-886 -887 0
-886 -888 0
-886 -889 0
-886 -890 0
-887 -888 0
-887 -889 0
-887 -890 0
-888 -889 0
-888 -890 0
-889 -890 0
891 898 905 912 0
-891 -898 0
-891 -905 0
-891 -912 0
-898 -905 0
-898 -912 0
-905 -912 0
944 945 946 947 948 949 0
-944 -945 0
-944 -946 0
-944 -947 0
-944 -948 0
-944 -949 0
-945 -946 0
-945 -947 0
-945 -948 0
-945 -949 0
-946 -947 0
-946 -948 0
-946 -949 0
-947 -948 0
-947 -949 0
-948 -949 0
950 957 964 971 0
-950 -957 0
-950 -964 0
-950 -971 0
-957 -964 0
-957 -971 0
-964 -971 0
1003 1004 1005 1006 1007 0
-1003 -1004 0
-1003 -1005 0
-1003 -1006 0
-1003 -1007 0
-1004 -1005 0
-1004 -1006 0
-1004 -1007 0
-1005 -1006 0
-1005 -1007 0
-1006 -1007 0
1008 1014 1020 1026 0
-1008 -1014 0
-1008 -1020 0
-1008 -1026 0
-1014 -1020 0
-1014 -1026 0
-1020 -1026 0
1057 1058 1059 1060 0
-1057 -1058 0
-1057 -1059 0
-1057 -1060 0
-1058 -1059 0
-1058 -1060 0
-1059 -1060 0
1061 1066 1071 1076 0
-1061 -1066 0
-1061 -1071 0
-1061 -1076 0
-1066 -1071 0
-1066 -1076 0
-1071 -1076 0
-8 1 0
-8 7 0
-1 -7 8 0
-15 1 0
-15 14 0
-1 -14 15 0
-22 1 0
-22 21 0
-1 -21 22 0
-29 1 0
-29 28 0
-1 -28 29 0
-9 2 0
-9 7 0
-2 -7 9 0
-16 2 0
-16 14 0
-2 -14 16 0
-23 2 0
-23 21 0
-2 -21 23 0
-30 2 0
-30 28 0
-2 -28 30 0
-10 3 0
-10 7 0
-3 -7 10 0
-17 3 0
-17 14 0
-3 -14 17 0
-24 3 0
-24 21 0
-3 -21 24 0
-31 3 0
-31 28 0
-3 -28 31 0
-11 4 0
-11 7 0
-4 -7 11 0
-18 4 0
-18 14 0
-4 -14 18 0
-25 4 0
-25 21 0
-4 -21 25 0
-32 4 0
-32 28 0
-4 -28 32 0
-12 5 0
-12 7 0
-5 -7 12 0
-19 5 0
-19 14 0
-5 -14 19 0
-26 5 0
-26 21 0
-5 -21 26 0
-33 5 0
-33 28 0
-5 -28 33 0
-13 6 0
-13 7 0
-6 -7 13 0
-20 6 0
-20 14 0
-6 -14 20 0
-27 6 0
-27 21 0
-6 -21 27 0
-34 6 0
-34 28 0
-6 -28 34 0
-67 60 0
-67 66 0
-60 -66 67 0
-74 60 0
-74 73 0
-60 -73 74 0
-81 60 0
-81 80 0
-60 -80 81 0
-88 60 0
-88 87 0
-60 -87 88 0
-68 61 0
-68 66 0
-61 -66 68 0
-75 61 0
-75 73 0
-61 -73 75 0
-82 61 0
-82 80 0
-61 -80 82 0
-89 61 0
-89 87 0
-61 -87 89 0
-69 62 0
-69 66 0
-62 -66 69 0
-76 62 0
-76 73 0
-62 -73 76 0
-83 62 0
-83 80 0
-62 -80 83 0
-90 62 0
-90 87 0
-62 -87 90 0
-70 63 0
-70 66 0
-63 -66 70 0
-77 63 0
-77 73 0
-63 -73 77 0
-84 63 0
-84 80 0
-63 -80 84 0
-91 63 0
-91 87 0
-63 -87 91 0
-71 64 0
-71 66 0
-64 -66 71 0
-78 64 0
-78 73 0
-64 -73 78 0
-85 64 0
-85 80 0
-64 -80 85 0
-92 64 0
-92 87 0
-64 -87 92 0
-72 65 0
-72 66 0
-65 -66 72 0
-79 65 0
-79 73 0
-65 -73 79 0
-86 65 0
-86 80 0
-65 -80 86 0
-93 65 0
-93 87 0
-65 -87 93 0
-125 119 0
-125 124 0
-119 -124 125 0
-131 119 0
-131 130 0
-119 -130 131 0
-137 119 0
-137 136 0
-119 -136 137 0
-143 119 0
-143 142 0
-119 -142 143 0
-126 120 0
-126 124 0
-120 -124 126 0
-132 120 0
-132 130 0
-120 -130 132 0
-138 120 0
-138 136 0
-120 -136 138 0
-144 120 0
-144 142 0
-120 -142 144 0
-127 121 0
-127 124 0
-121 -124 127 0
-133 121 0
-133 130 0
-121 -130 133 0
-139 121 0
-139 136 0
-121 -136 139 0
-145 121 0
-145 142 0
-121 -142 145 0
-128 122 0
-128 124 0
-122 -124 128 0
-134 122 0
-134 130 0
-122 -130 134 0
-140 122 0
-140 136 0
-122 -136 140 0
-146 122 0
-146 142 0
-122 -142 146 0
-129 123 0
-129 124 0
-123 -124 129 0
-135 123 0
-135 130 0
-123 -130 135 0
-141 123 0
-141 136 0
-123 -136 141 0
-147 123 0
-147 142 0
-123 -142 147 0
-178 173 0
-178 177 0
-173 -177 178 0
-183 173 0
-183 182 0
-173 -182 183 0
-188 173 0
-188 187 0
-173 -187 188 0
-193 173 0
-193 192 0
-173 -192 193 0
-179 174 0
-179 177 0
-174 -177 179 0
-184 174 0
-184 182 0
-174 -182 184 0
-189 174 0
-189 187 0
-174 -187 189 0
-194 174 0
-194 192 0
-174 -192 194 0
-180 175 0
-180 177 0
-175 -177 180 0
-185 175 0
-185 182 0
-175 -182 185 0
-190 175 0
-190 187 0
-175 -187 190 0
-195 175 0
-195 192 0
-175 -192 195 0
-181 176 0
-181 177 0
-176 -177 181 0
-186 176 0
-186 182 0
-176 -182 186 0
-191 176 0
-191 187 0
-176 -187 191 0
-196 176 0
-196 192 0
-176 -192 196 0
-229 222 0
-229 228 0
-222 -228 229 0
-236 222 0
-236 235 0
-222 -235 236 0
-243 222 0
-243 242 0
-222 -242 243 0
-250 222 0
-250 249 0
-222 -249 250 0
-230 223 0
-230 228 0
-223 -228 230 0
-237 223 0
-237 235 0
-223 -235 237 0
-244 223 0
-244 242 0
-223 -242 244 0
-251 223 0
-251 249 0
-223 -249 251 0
-231 224 0
-231 228 0
-224 -228 231 0
-238 224 0
-238 235 0
-224 -235 238 0
-245 224 0
-245 242 0
-224 -242 245 0
-252 224 0
-252 249 0
-224 -249 252 0
-232 225 0
-232 228 0
-225 -228 232 0
-239 225 0
-239 235 0
-225 -235 239 0
-246 225 0
-246 242 0
-225 -242 246 0
-253 225 0
-253 249 0
-225 -249 253 0
-233 226 0
-233 228 0
-226 -228 233 0
-240 226 0
-240 235 0
-226 -235 240 0
-247 226 0
-247 242 0
-226 -242 247 0
-254 226 0
-254 249 0
-226 -249 254 0
-234 227 0
-234 228 0
-227 -228 234 0
-241 227 0
-241 235 0
-227 -235 241 0
-248 227 0
-248 242 0
-227 -242 248 0
-255 227 0
-255 249 0
-227 -249 255 0
-288 281 0
-288 287 0
-281 -287 288 0
-295 281 0
-295 294 0
-281 -294 295 0
-302 281 0
-302 301 0
-281 -301 302 0
-309 281 0
-309 308 0
-281 -308 309 0
-289 282 0
-289 287 0
-282 -287 289 0
-296 282 0
-296 294 0
-282 -294 296 0
-303 282 0
-303 301 0
-282 -301 303 0
-310 282 0
-310 308 0
-282 -308 310 0
-290 283 0
-290 287 0
-283 -287 290 0
-297 283 0
-297 294 0
-283 -294 297 0
-304 283 0
-304 301 0
-283 -301 304 0
-311 283 0
-311 308 0
-283 -308 311 0
-291 284 0
-291 287 0
-284 -287 291 0
-298 284 0
-298 294 0
-284 -294 298 0
-305 284 0
-305 301 0
-284 -301 305 0
-312 284 0
-312 308 0
-284 -308 312 0
-292 285 0
-292 287 0
-285 -287 292 0
-299 285 0
-299 294 0
-285 -294 299 0
-306 285 0
-306 301 0
-285 -301 306 0
-313 285 0
-313 308 0
-285 -308 313 0
-293 286 0
-293 287 0
-286 -287 293 0
-300 286 0
-300 294 0
-286 -294 300 0
-307 286 0
-307 301 0
-286 -301 307 0
-314 286 0
-314 308 0
-286 -308 314 0
-346 340 0
-346 345 0
-340 -345 346 0
-352 340 0
-352 351 0
-340 -351 352 0
-358 340 0
-358 357 0
-340 -357 358 0
-364 340 0
-364 363 0
-340 -363 364 0
-347 341 0
-347 345 0
-341 -345 347 0
-353 341 0
-353 351 0
-341 -351 353 0
-359 341 0
-359 357 0
-341 -357 359 0
-365 341 0
-365 363 0
-341 -363 365 0
-348 342 0
-348 345 0
-342 -345 348 0
-354 342 0
-354 351 0
-342 -351 354 0
-360 342 0
-360 357 0
-342 -357 360 0
-366 342 0
-366 363 0
-342 -363 366 0
-349 343 0
-349 345 0
-343 -345 349 0
-355 343 0
-355 351 0
-343 -351 355 0
-361 343 0
-361 357 0
-343 -357 361 0
-367 343 0
-367 363 0
-343 -363 367 0
-350 344 0
-350 345 0
-344 -345 350 0
-356 344 0
-356 351 0
-344 -351 356 0
-362 344 0
-362 357 0
-344 -357 362 0
-368 344 0
-368 363 0
-344 -363 368 0
-399 394 0
-399 398 0
-394 -398 399 0
-404 394 0
-404 403 0
-394 -403 404 0
-409 394 0
-409 408 0
-394 -408 409 0
-414 394 0
-414 413 0
-394 -413 414 0
-400 395 0
-400 398 0
-395 -398 400 0
-405 395 0
-405 403 0
-395 -403 405 0
-410 395 0
-410 408 0
-395 -408 410 0
-415 395 0
-415 413 0
-395 -413 415 0
-401 396 0
-401 398 0
-396 -398 401 0
-406 396 0
-406 403 0
-396 -403 406 0
-411 396 0
-411 408 0
-396 -408 411 0
-416 396 0
-416 413 0
-396 -413 416 0
-402 397 0
-402 398 0
-397 -398 402 0
-407 397 0
-407 403 0
-397 -403 407 0
-412 397 0
-412 408 0
-397 -408 412 0
-417 397 0
-417 413 0
-397 -413 417 0
-450 443 0
-450 449 0
-443 -449 450 0
-457 443 0
-457 456 0
-443 -456 457 0
-464 443 0
-464 463 0
-443 -463 464 0
-471 443 0
-471 470 0
-443 -470 471 0
-451 444 0
-451 449 0
-444 -449 451 0
-458 444 0
-458 456 0
-444 -456 458 0
-465 444 0
-465 463 0
-444 -463 465 0
-472 444 0
-472 470 0
-444 -470 472 0
-452 445 0
-452 449 0
-445 -449 452 0
-459 445 0
-459 456 0
-445 -456 459 0
-466 445 0
-466 463 0
-445 -463 466 0
-473 445 0
-473 470 0
-445 -470 473 0
-453 446 0
-453 449 0
-446 -449 453 0
-460 446 0
-460 456 0
-446 -456 460 0
-467 446 0
-467 463 0
-446 -463 467 0
-474 446 0
-474 470 0
-446 -470 474 0
-454 447 0
-454 449 0
-447 -449 454 0
-461 447 0
-461 456 0
-447 -456 461 0
-468 447 0
-468 463 0
-447 -463 468 0
-475 447 0
-475 470 0
-447 -470 475 0
-455 448 0
-455 449 0
-448 -449 455 0
-462 448 0
-462 456 0
-448 -456 462 0
-469 448 0
-469 463 0
-448 -463 469 0
-476 448 0
-476 470 0
-448 -470 476 0
-509 502 0
-509 508 0
-502 -508 509 0
-516 502 0
-516 515 0
-502 -515 516 0
-523 502 0
-523 522 0
-502 -522 523 0
-530 502 0
-530 529 0
-502 -529 530 0
-510 503 0
-510 508 0
-503 -508 510 0
-517 503 0
-517 515 0
-503 -515 517 0
-524 503 0
-524 522 0
-503 -522 524 0
-531 503 0
-531 529 0
-503 -529 531 0
-511 504 0
-511 508 0
-504 -508 511 0
-518 504 0
-518 515 0
-504 -515 518 0
-525 504 0
-525 522 0
-504 -522 525 0
-532 504 0
-532 529 0
-504 -529 532 0
-512 505 0
-512 508 0
-505 -508 512 0
-519 505 0
-519 515 0
-505 -515 519 0
-526 505 0
-526 522 0
-505 -522 526 0
-533 505 0
-533 529 0
-505 -529 533 0
-513 506 0
-513 508 0
-506 -508 513 0
-520 506 0
-520 515 0
-506 -515 520 0
-527 506 0
-527 522 0
-506 -522 527 0
-534 506 0
-534 529 0
-506 -529 534 0
-514 507 0
-514 508 0
-507 -508 514 0
-521 507 0
-521 515 0
-507 -515 521 0
-528 507 0
-528 522 0
-507 -522 528 0
-535 507 0
-535 529 0
-507 -529 535 0
-567 561 0
-567 566 0
-561 -566 567 0
-573 561 0
-573 572 0
-561 -572 573 0
-579 561 0
-579 578 0
-561 -578 579 0
-585 561 0
-585 584 0
-561 -584 585 0
-568 562 0
-568 566 0
-562 -566 568 0
-574 562 0
-574 572 0
-562 -572 574 0
-580 562 0
-580 578 0
-562 -578 580 0
-586 562 0
-586 584 0
-562 -584 586 0
-569 563 0
-569 566 0
-563 -566 569 0
-575 563 0
-575 572 0
-563 -572 575 0
-581 563 0
-581 578 0
-563 -578 581 0
-587 563 0
-587 584 0
-563 -584 587 0
-570 564 0
-570 566 0
-564 -566 570 0
-576 564 0
-576 572 0
-564 -572 576 0
-582 564 0
-582 578 0
-564 -578 582 0
-588 564 0
-588 584 0
-564 -584 588 0
-571 565 0
-571 566 0
-565 -566 571 0
-577 565 0
-577 572 0
-565 -572 577 0
-583 565 0
-583 578 0
-565 -578 583 0
-589 565 0
-589 584 0
-565 -584 589 0
-620 615 0
-620 619 0
-615 -619 620 0
-625 615 0
-625 624 0
-615 -624 625 0
-630 615 0
-630 629 0
-615 -629 630 0
-635 615 0
-635 634 0
-615 -634 635 0
-621 616 0
-621 619 0
-616 -619 621 0
-626 616 0
-626 624 0
-616 -624 626 0
-631 616 0
-631 629 0
-616 -629 631 0
-636 616 0
-636 634 0
-616 -634 636 0
-622 617 0
-622 619 0
-617 -619 622 0
-627 617 0
-627 624 0
-617 -624 627 0
-632 617 0
-632 629 0
-617 -629 632 0
-637 617 0
-637 634 0
-617 -634 637 0
-623 618 0
-623 619 0
-618 -619 623 0
-628 618 0
-628 624 0
-618 -624 628 0
-633 618 0
-633 629 0
-618 -629 633 0
-638 618 0
-638 634 0
-618 -634 638 0
-671 664 0
-671 670 0
-664 -670 671 0
-678 664 0
-678 677 0
-664 -677 678 0
-685 664 0
-685 684 0
-664 -684 685 0
-692 664 0
-692 691 0
-664 -691 692 0
-672 665 0
-672 670 0
-665 -670 672 0
-679 665 0
-679 677 0
-665 -677 679 0
-686 665 0
-686 684 0
-665 -684 686 0
-693 665 0
-693 691 0
-665 -691 693 0
-673 666 0
-673 670 0
-666 -670 673 0
-680 666 0
-680 677 0
-666 -677 680 0
-687 666 0
-687 684 0
-666 -684 687 0
-694 666 0
-694 691 0
-666 -691 694 0
-674 667 0
-674 670 0
-667 -670 674 0
-681 667 0
-681 677 0
-667 -677 681 0
-688 667 0
-688 684 0
-667 -684 688 0
-695 667 0
-695 691 0
-667 -691 695 0
-675 668 0
-675 670 0
-668 -670 675 0
-682 668 0
-682 677 0
-668 -677 682 0
-689 668 0
-689 684 0
-668 -684 689 0
-696 668 0
-696 691 0
-668 -691 696 0
-676 669 0
-676 670 0
-669 -670 676 0
-683 669 0
-683 677 0
-669 -677 683 0
-690 669 0
-690 684 0
-669 -684 690 0
-697 669 0
-697 691 0
-669 -691 697 0
-730 723 0
-730 729 0
-723 -729 730 0
-737 723 0
-737 736 0
-723 -736 737 0
-744 723 0
-744 743 0
-723 -743 744 0
-751 723 0
-751 750 0
-723 -750 751 0
-731 724 0
-731 729 0
-724 -729 731 0
-738 724 0
-738 736 0
-724 -736 738 0
-745 724 0
-745 743 0
-724 -743 745 0
-752 724 0
-752 750 0
-724 -750 752 0
-732 725 0
-732 729 0
-725 -729 732 0
-739 725 0
-739 736 0
-725 -736 739 0
-746 725 0
-746 743 0
-725 -743 746 0
-753 725 0
-753 750 0
-725 -750 753 0
-733 726 0
-733 729 0
-726 -729 733 0
-740 726 0
-740 736 0
-726 -736 740 0
-747 726 0
-747 743 0
-726 -743 747 0
-754 726 0
-754 750 0
-726 -750 754 0
-734 727 0
-734 729 0
-727 -729 734 0
-741 727 0
-741 736 0
-727 -736 741 0
-748 727 0
-748 743 0
-727 -743 748 0
-755 727 0
-755 750 0
-727 -750 755 0
-735 728 0
-735 729 0
-728 -729 735 0
-742 728 0
-742 736 0
-728 -736 742 0
-749 728 0
-749 743 0
-728 -743 749 0
-756 728 0
-756 750 0
-728 -750 756 0
-788 782 0
-788 787 0
-782 -787 788 0
-794 782 0
-794 793 0
-782 -793 794 0
-800 782 0
-800 799 0
-782 -799 800 0
-806 782 0
-806 805 0
-782 -805 806 0
-789 783 0
-789 787 0
-783 -787 789 0
-795 783 0
-795 793 0
-783 -793 795 0
-801 783 0
-801 799 0
-783 -799 801 0
-807 783 0
-807 805 0
-783 -805 807 0
-790 784 0
-790 787 0
-784 -787 790 0
-796 784 0
-796 793 0
-784 -793 796 0
-802 784 0
-802 799 0
-784 -799 802 0
-808 784 0
-808 805 0
-784 -805 808 0
-791 785 0
-791 787 0
-785 -787 791 0
-797 785 0
-797 793 0
-785 -793 797 0
-803 785 0
-803 799 0
-785 -799 803 0
-809 785 0
-809 805 0
-785 -805 809 0
-792 786 0
-792 787 0
-786 -787 792 0
-798 786 0
-798 793 0
-786 -793 798 0
-804 786 0
-804 799 0
-786 -799 804 0
-810 786 0
-810 805 0
-786 -805 810 0
-841 836 0
-841 840 0
-836 -840 841 0
-846 836 0
-846 845 0
-836 -845 846 0
-851 836 0
-851 850 0
-836 -850 851 0
-856 836 0
-856 855 0
-836 -855 856 0
-842 837 0
-842 840 0
-837 -840 842 0
-847 837 0
-847 845 0
-837 -845 847 0
-852 837 0
-852 850 0
-837 -850 852 0
-857 837 0
-857 855 0
-837 -855 857 0
-843 838 0
-843 840 0
-838 -840 843 0
-848 838 0
-848 845 0
-838 -845 848 0
-853 838 0
-853 850 0
-838 -850 853 0
-858 838 0
-858 855 0
-838 -855 858 0
-844 839 0
-844 840 0
-839 -840 844 0
-849 839 0
-849 845 0
-839 -845 849 0
-854 839 0
-854 850 0
-839 -850 854 0
-859 839 0
-859 855 0
-839 -855 859 0
-892 885 0
-892 891 0
-885 -891 892 0
-899 885 0
-899 898 0
-885 -898 899 0
-906 885 0
-906 905 0
-885 -905 906 0
-913 885 0
-913 912 0
-885 -912 913 0
-893 886 0
-893 891 0
-886 -891 893 0
-900 886 0
-900 898 0
-886 -898 900 0
-907 886 0
-907 905 0
-886 -905 907 0
-914 886 0
-914 912 0
-886 -912 914 0
-894 887 0
-894 891 0
-887 -891 894 0
-901 887 0
-901 898 0
-887 -898 901 0
-908 887 0
-908 905 0
-887 -905 908 0
-915 887 0
-915 912 0
-887 -912 915 0
-895 888 0
-895 891 0
-888 -891 895 0
-902 888 0
-902 898 0
-888 -898 902 0
-909 888 0
-909 905 0
-888 -905 909 0
-916 888 0
-916 912 0
-888 -912 916 0
-896 889 0
-896 891 0
-889 -891 896 0
-903 889 0
-903 898 0
-889 -898 903 0
-910 889 0
-910 905 0
-889 -905 910 0
-917 889 0
-917 912 0
-889 -912 917 0
-897 890 0
-897 891 0
-890 -891 897 0
-904 890 0
-904 898 0
-890 -898 904 0
-911 890 0
-911 905 0
-890 -905 911 0
-918 890 0
-918 912 0
-890 -912 918 0
-951 944 0
-951 950 0
-944 -950 951 0
-958 944 0
-958 957 0
-944 -957 958 0
-965 944 0
-965 964 0
-944 -964 965 0
-972 944 0
-972 971 0
-944 -971 972 0
-952 945 0
-952 950 0
-945 -950 952 0
-959 945 0
-959 957 0
-945 -957 959 0
-966 945 0
-966 964 0
-945 -964 966 0
-973 945 0
-973 971 0
-945 -971 973 0
-953 946 0
-953 950 0
-946 -950 953 0
-960 946 0
-960 957 0
-946 -957 960 0
-967 946 0
-967 964 0
-946 -964 967 0
-974 946 0
-974 971 0
-946 -971 974 0
-954 947 0
-954 950 0
-947 -950 954 0
-961 947 0
-961 957 0
-947 -957 961 0
-968 947 0
-968 964 0
-947 -964 968 0
-975 947 0
-975 971 0
-947 -971 975 0
-955 948 0
-955 950 0
-948 -950 955 0
-962 948 0
-962 957 0
-948 -957 962 0
-969 948 0
-969 964 0
-948 -964 969 0
-976 948 0
-976 971 0
-948 -971 976 0
-956 949 0
-956 950 0
-949 -950 956 0
-963 949 0
-963 957 0
-949 -957 963 0
-970 949 0
-970 964 0
-949 -964 970 0
-977 949 0
-977 971 0
-949 -971 977 0
-1009 1003 0
-1009 1008 0
-1003 -1008 1009 0
-1015 1003 0
-1015 1014 0
-1003 -1014 1015 0
-1021 1003 0
-1021 1020 0
-1003 -1020 1021 0
-1027 1003 0
-1027 1026 0
-1003 -1026 1027 0
-1010 1004 0
-1010 1008 0
-1004 -1008 1010 0
-1016 1004 0
-1016 1014 0
-1004 -1014 1016 0
-1022 1004 0
-1022 1020 0
-1004 -1020 1022 0
-1028 1004 0
-1028 1026 0
-1004 -1026 1028 0
-1011 1005 0
-1011 1008 0
-1005 -1008 1011 0
-1017 1005 0
-1017 1014 0
-1005 -1014 1017 0
-1023 1005 0
-1023 1020 0
-1005 -1020 1023 0
-1029 1005 0
-1029 1026 0
-1005 -1026 1029 0
-1012 1006 0
-1012 1008 0
-1006 -1008 1012 0
-1018 1006 0
-1018 1014 0
-1006 -1014 1018 0
-1024 1006 0
-1024 1020 0
-1006 -1020 1024 0
-1030 1006 0
-1030 1026 0
-1006 -1026 1030 0
-1013 1007 0
-1013 1008 0
-1007 -1008 1013 0
-1019 1007 0
-1019 1014 0
-1007 -1014 1019 0
-1025 1007 0
-1025 1020 0
-1007 -1020 1025 0
-1031 1007 0
-1031 1026 0
-1007 -1026 1031 0
-1062 1057 0
-1062 1061 0
-1057 -1061 1062 0
-1067 1057 0
-1067 1066 0
-1057 -1066 1067 0
-1072 1057 0
-1072 1071 0
-1057 -1071 1072 0
-1077 1057 0
-1077 1076 0
-1057 -1076 1077 0
-1063 1058 0
-1063 1061 0
-1058 -1061 1063 0
-1068 1058 0
-1068 1066 0
-1058 -1066 1068 0
-1073 1058 0
-1073 1071 0
-1058 -1071 1073 0
-1078 1058 0
-1078 1076 0
-1058 -1076 1078 0
-1064 1059 0
-1064 1061 0
-1059 -1061 1064 0
-1069 1059 0
-1069 1066 0
-1059 -1066 1069 0
-1074 1059 0
-1074 1071 0
-1059 -1071 1074 0
-1079 1059 0
-1079 1076 0
-1059 -1076 1079 0
-1065 1060 0
-1065 1061 0
-1060 -1061 1065 0
-1070 1060 0
-1070 1066 0
-1060 -1066 1070 0
-1075 1060 0
-1075 1071 0
-1060 -1071 1075 0
-1080 1060 0
-1080 1076 0
-1060 -1076 1080 0
-8 197 0
-67 197 0
-125 197 0
-178 197 0
-197 8 67 125 178 0
-9 198 0
-68 198 0
-125 198 0
-126 198 0
-178 198 0
-179 198 0
-198 9 68 125 126 178 179 0
-10 199 0
-69 199 0
-126 199 0
-127 199 0
-178 199 0
-179 199 0
-180 199 0
-199 10 69 126 127 178 179 180 0
-11 200 0
-70 200 0
-127 200 0
-128 200 0
-179 200 0
-180 200 0
-181 200 0
-200 11 70 127 128 179 180 181 0
-12 201 0
-71 201 0
-128 201 0
-129 201 0
-180 201 0
-181 201 0
-201 12 71 128 129 180 181 0
-13 202 0
-72 202 0
-129 202 0
-181 202 0
-202 13 72 129 181 0
-15 203 0
-74 203 0
-131 203 0
-183 203 0
-203 15 74 131 183 0
-16 204 0
-75 204 0
-131 204 0
-132 204 0
-183 204 0
-184 204 0
-204 16 75 131 132 183 184 0
-17 205 0
-76 205 0
-132 205 0
-133 205 0
-183 205 0
-184 205 0
-185 205 0
-205 17 76 132 133 183 184 185 0
-18 206 0
-77 206 0
-133 206 0
-134 206 0
-184 206 0
-185 206 0
-186 206 0
-206 18 77 133 134 184 185 186 0
-19 207 0
-78 207 0
-134 207 0
-135 207 0
-185 207 0
-186 207 0
-207 19 78 134 135 185 186 0
-20 208 0
-79 208 0
-135 208 0
-186 208 0
-208 20 79 135 186 0
-22 209 0
-81 209 0
-137 209 0
-188 209 0
-209 22 81 137 188 0
-23 210 0
-82 210 0
-137 210 0
-138 210 0
-188 210 0
-189 210 0
-210 23 82 137 138 188 189 0
-24 211 0
-83 211 0
-138 211 0
-139 211 0
-188 211 0
-189 211 0
-190 211 0
-211 24 83 138 139 188 189 190 0
-25 212 0
-84 212 0
-139 212 0
-140 212 0
-189 212 0
-190 212 0
-191 212 0
-212 25 84 139 140 189 190 191 0
-26 213 0
-85 213 0
-140 213 0
-141 213 0
-190 213 0
-191 213 0
-213 26 85 140 141 190 191 0
-27 214 0
-86 214 0
-141 214 0
-191 214 0
-214 27 86 141 191 0
-29 215 0
-88 215 0
-143 215 0
-193 215 0
-215 29 88 143 193 0
-30 216 0
-89 216 0
-143 216 0
-144 216 0
-193 216 0
-194 216 0
-216 30 89 143 144 193 194 0
-31 217 0
-90 217 0
-144 217 0
-145 217 0
-193 217 0
-194 217 0
-195 217 0
-217 31 90 144 145 193 194 195 0
-32 218 0
-91 218 0
-145 218 0
-146 218 0
-194 218 0
-195 218 0
-196 218 0
-218 32 91 145 146 194 195 196 0
-33 219 0
-92 219 0
-146 219 0
-147 219 0
-195 219 0
-196 219 0
-219 33 92 146 147 195 196 0
-34 220 0
-93 220 0
-147 220 0
-196 220 0
-220 34 93 147 196 0
-229 418 0
-288 418 0
-346 418 0
-399 418 0
-418 229 288 346 399 0
-230 419 0
-289 419 0
-346 419 0
-347 419 0
-399 419 0
-400 419 0
-419 230 289 346 347 399 400 0
-231 420 0
-290 420 0
-347 420 0
-348 420 0
-399 420 0
-400 420 0
-401 420 0
-420 231 290 347 348 399 400 401 0
-232 421 0
-291 421 0
-348 421 0
-349 421 0
-400 421 0
-401 421 0
-402 421 0
-421 232 291 348 349 400 401 402 0
-233 422 0
-292 422 0
-349 422 0
-350 422 0
-401 422 0
-402 422 0
-422 233 292 349 350 401 402 0
-234 423 0
-293 423 0
-350 423 0
-402 423 0
-423 234 293 350 402 0
-236 424 0
-295 424 0
-352 424 0
-404 424 0
-424 236 295 352 404 0
-237 425 0
-296 425 0
-352 425 0
-353 425 0
-404 425 0
-405 425 0
-425 237 296 352 353 404 405 0
-238 426 0
-297 426 0
-353 426 0
-354 426 0
-404 426 0
-405 426 0
-406 426 0
-426 238 297 353 354 404 405 406 0
-239 427 0
-298 427 0
-354 427 0
-355 427 0
-405 427 0
-406 427 0
-407 427 0
-427 239 298 354 355 405 406 407 0
-240 428 0
-299 428 0
-355 428 0
-356 428 0
-406 428 0
-407 428 0
-428 240 299 355 356 406 407 0
-241 429 0
-300 429 0
-356 429 0
-407 429 0
-429 241 300 356 407 0
-243 430 0
-302 430 0
-358 430 0
-409 430 0
-430 243 302 358 409 0
-244 431 0
-303 431 0
-358 431 0
-359 431 0
-409 431 0
-410 431 0
-431 244 303 358 359 409 410 0
-245 432 0
-304 432 0
-359 432 0
-360 432 0
-409 432 0
-410 432 0
-411 432 0
-432 245 304 359 360 409 410 411 0
-246 433 0
-305 433 0
-360 433 0
-361 433 0
-410 433 0
-411 433 0
-412 433 0
-433 246 305 360 361 410 411 412 0
-247 434 0
-306 434 0
-361 434 0
-362 434 0
-411 434 0
-412 434 0
-434 247 306 361 362 411 412 0
-248 435 0
-307 435 0
-362 435 0
-412 435 0
-435 248 307 362 412 0
-250 436 0
-309 436 0
-364 436 0
-414 436 0
-436 250 309 364 414 0
-251 437 0
-310 437 0
-364 437 0
-365 437 0
-414 437 0
-415 437 0
-437 251 310 364 365 414 415 0
-252 438 0
-311 438 0
-365 438 0
-366 438 0
-414 438 0
-415 438 0
-416 438 0
-438 252 311 365 366 414 415 416 0
-253 439 0
-312 439 0
-366 439 0
-367 439 0
-415 439 0
-416 439 0
-417 439 0
-439 253 312 366 367 415 416 417 0
-254 440 0
-313 440 0
-367 440 0
-368 440 0
-416 440 0
-417 440 0
-440 254 313 367 368 416 417 0
-255 441 0
-314 441 0
-368 441 0
-417 441 0
-441 255 314 368 417 0
-450 639 0
-509 639 0
-567 639 0
-620 639 0
-639 450 509 567 620 0
-451 640 0
-510 640 0
-567 640 0
-568 640 0
-620 640 0
-621 640 0
-640 451 510 567 568 620 621 0
-452 641 0
-511 641 0
-568 641 0
-569 641 0
-620 641 0
-621 641 0
-622 641 0
-641 452 511 568 569 620 621 622 0
-453 642 0
-512 642 0
-569 642 0
-570 642 0
-621 642 0
-622 642 0
-623 642 0
-642 453 512 569 570 621 622 623 0
-454 643 0
-513 643 0
-570 643 0
-571 643 0
-622 643 0
-623 643 0
-643 454 513 570 571 622 623 0
-455 644 0
-514 644 0
-571 644 0
-623 644 0
-644 455 514 571 623 0
-457 645 0
-516 645 0
-573 645 0
-625 645 0
-645 457 516 573 625 0
-458 646 0
-517 646 0
-573 646 0
-574 646 0
-625 646 0
-626 646 0
-646 458 517 573 574 625 626 0
-459 647 0
-518 647 0
-574 647 0
-575 647 0
-625 647 0
-626 647 0
-627 647 0
-647 459 518 574 575 625 626 627 0
-460 648 0
-519 648 0
-575 648 0
-576 648 0
-626 648 0
-627 648 0
-628 648 0
-648 460 519 575 576 626 627 628 0
-461 649 0
-520 649 0
-576 649 0
-577 649 0
-627 649 0
-628 649 0
-649 461 520 576 577 627 628 0
-462 650 0
-521 650 0
-577 650 0
-628 650 0
-650 462 521 577 628 0
-464 651 0
-523 651 0
-579 651 0
-630 651 0
-651 464 523 579 630 0
-465 652 0
-524 652 0
-579 652 0
-580 652 0
-630 652 0
-631 652 0
-652 465 524 579 580 630 631 0
-466 653 0
-525 653 0
-580 653 0
-581 653 0
-630 653 0
-631 653 0
-632 653 0
-653 466 525 580 581 630 631 632 0
-467 654 0
-526 654 0
-581 654 0
-582 654 0
-631 654 0
-632 654 0
-633 654 0
-654 467 526 581 582 631 632 633 0
-468 655 0
-527 655 0
-582 655 0
-583 655 0
-632 655 0
-633 655 0
-655 468 527 582 583 632 633 0
-469 656 0
-528 656 0
-583 656 0
-633 656 0
-656 469 528 583 633 0
-471 657 0
-530 657 0
-585 657 0
-635 657 0
-657 471 530 585 635 0
-472 658 0
-531 658 0
-585 658 0
-586 658 0
-635 658 0
-636 658 0
-658 472 531 585 586 635 636 0
-473 659 0
-532 659 0
-586 659 0
-587 659 0
-635 659 0
-636 659 0
-637 659 0
-659 473 532 586 587 635 636 637 0
-474 660 0
-533 660 0
-587 660 0
-588 660 0
-636 660 0
-637 660 0
-638 660 0
-660 474 533 587 588 636 637 638 0
-475 661 0
-534 661 0
-588 661 0
-589 661 0
-637 661 0
-638 661 0
-661 475 534 588 589 637 638 0
-476 662 0
-535 662 0
-589 662 0
-638 662 0
-662 476 535 589 638 0
-671 860 0
-730 860 0
-788 860 0
-841 860 0
-860 671 730 788 841 0
-672 861 0
-731 861 0
-788 861 0
-789 861 0
-841 861 0
-842 861 0
-861 672 731 788 789 841 842 0
-673 862 0
-732 862 0
-789 862 0
-790 862 0
-841 862 0
-842 862 0
-843 862 0
-862 673 732 789 790 841 842 843 0
-674 863 0
-733 863 0
-790 863 0
-791 863 0
-842 863 0
-843 863 0
-844 863 0
-863 674 733 790 791 842 843 844 0
-675 864 0
-734 864 0
-791 864 0
-792 864 0
-843 864 0
-844 864 0
-864 675 734 791 792 843 844 0
-676 865 0
-735 865 0
-792 865 0
-844 865 0
-865 676 735 792 844 0
-678 866 0
-737 866 0
-794 866 0
-846 866 0
-866 678 737 794 846 0
-679 867 0
-738 867 0
-794 867 0
-795 867 0
-846 867 0
-847 867 0
-867 679 738 794 795 846 847 0
-680 868 0
-739 868 0
-795 868 0
-796 868 0
-846 868 0
-847 868 0
-848 868 0
-868 680 739 795 796 846 847 848 0
-681 869 0
-740 869 0
-796 869 0
-797 869 0
-847 869 0
-848 869 0
-849 869 0
-869 681 740 796 797 847 848 849 0
-682 870 0
-741 870 0
-797 870 0
-798 870 0
-848 870 0
-849 870 0
-870 682 741 797 798 848 849 0
-683 871 0
-742 871 0
-798 871 0
-849 871 0
-871 683 742 798 849 0
-685 872 0
-744 872 0
-800 872 0
-851 872 0
-872 685 744 800 851 0
-686 873 0
-745 873 0
-800 873 0
-801 873 0
-851 873 0
-852 873 0
-873 686 745 800 801 851 852 0
-687 874 0
-746 874 0
-801 874 0
-802 874 0
-851 874 0
-852 874 0
-853 874 0
-874 687 746 801 802 851 852 853 0
-688 875 0
-747 875 0
-802 875 0
-803 875 0
-852 875 0
-853 875 0
-854 875 0
-875 688 747 802 803 852 853 854 0
-689 876 0
-748 876 0
-803 876 0
-804 876 0
-853 876 0
-854 876 0
-876 689 748 803 804 853 854 0
-690 877 0
-749 877 0
-804 877 0
-854 877 0
-877 690 749 804 854 0
-692 878 0
-751 878 0
-806 878 0
-856 878 0
-878 692 751 806 856 0
-693 879 0
-752 879 0
-806 879 0
-807 879 0
-856 879 0
-857 879 0
-879 693 752 806 807 856 857 0
-694 880 0
-753 880 0
-807 880 0
-808 880 0
-856 880 0
-857 880 0
-858 880 0
-880 694 753 807 808 856 857 858 0
-695 881 0
-754 881 0
-808 881 0
-809 881 0
-857 881 0
-858 881 0
-859 881 0
-881 695 754 808 809 857 858 859 0
-696 882 0
-755 882 0
-809 882 0
-810 882 0
-858 882 0
-859 882 0
-882 696 755 809 810 858 859 0
-697 883 0
-756 883 0
-810 883 0
-859 883 0
-883 697 756 810 859 0
-892 1081 0
-951 1081 0
-1009 1081 0
-1062 1081 0
-1081 892 951 1009 1062 0
-893 1082 0
-952 1082 0
-1009 1082 0
-1010 1082 0
-1062 1082 0
-1063 1082 0
-1082 893 952 1009 1010 1062 1063 0
-894 1083 0
-953 1083 0
-1010 1083 0
-1011 1083 0
-1062 1083 0
-1063 1083 0
-1064 1083 0
-1083 894 953 1010 1011 1062 1063 1064 0
-895 1084 0
-954 1084 0
-1011 1084 0
-1012 1084 0
-1063 1084 0
-1064 1084 0
-1065 1084 0
-1084 895 954 1011 1012 1063 1064 1065 0
-896 1085 0
-955 1085 0
-1012 1085 0
-1013 1085 0
-1064 1085 0
-1065 1085 0
-1085 896 955 1012 1013 1064 1065 0
-897 1086 0
-956 1086 0
-1013 1086 0
-1065 1086 0
-1086 897 956 1013 1065 0
-899 1087 0
-958 1087 0
-1015 1087 0
-1067 1087 0
-1087 899 958 1015 1067 0
-900 1088 0
-959 1088 0
-1015 1088 0
-1016 1088 0
-1067 1088 0
-1068 1088 0
-1088 900 959 1015 1016 1067 1068 0
-901 1089 0
-960 1089 0
-1016 1089 0
-1017 1089 0
-1067 1089 0
-1068 1089 0
-1069 1089 0
-1089 901 960 1016 1017 1067 1068 1069 0
-902 1090 0
-961 1090 0
-1017 1090 0
-1018 1090 0
-1068 1090 0
-1069 1090 0
-1070 1090 0
-1090 902 961 1017 1018 1068 1069 1070 0
-903 1091 0
-962 1091 0
-1018 1091 0
-1019 1091 0
-1069 1091 0
-1070 1091 0
-1091 903 962 1018 1019 1069 1070 0
-904 1092 0
-963 1092 0
-1019 1092 0
-1070 1092 0
-1092 904 963 1019 1070 0
-906 1093 0
-965 1093 0
-1021 1093 0
-1072 1093 0
-1093 906 965 1021 1072 0
-907 1094 0
-966 1094 0
-1021 1094 0
-1022 1094 0
-1072 1094 0
-1073 1094 0
-1094 907 966 1021 1022 1072 1073 0
-908 1095 0
-967 1095 0
-1022 1095 0
-1023 1095 0
-1072 1095 0
-1073 1095 0
-1074 1095 0
-1095 908 967 1022 1023 1072 1073 1074 0
-909 1096 0
-968 1096 0
-1023 1096 0
-1024 1096 0
-1073 1096 0
-1074 1096 0
-1075 1096 0
-1096 909 968 1023 1024 1073 1074 1075 0
-910 1097 0
-969 1097 0
-1024 1097 0
-1025 1097 0
-1074 1097 0
-1075 1097 0
-1097 910 969 1024 1025 1074 1075 0
-911 1098 0
-970 1098 0
-1025 1098 0
-1075 1098 0
-1098 911 970 1025 1075 0
-913 1099 0
-972 1099 0
-1027 1099 0
-1077 1099 0
-1099 913 972 1027 1077 0
-914 1100 0
-973 1100 0
-1027 1100 0
-1028 1100 0
-1077 1100 0
-1078 1100 0
-1100 914 973 1027 1028 1077 1078 0
-915 1101 0
-974 1101 0
-1028 1101 0
-1029 1101 0
-1077 1101 0
-1078 1101 0
-1079 1101 0
-1101 915 974 1028 1029 1077 1078 1079 0
-916 1102 0
-975 1102 0
-1029 1102 0
-1030 1102 0
-1078 1102 0
-1079 1102 0
-1080 1102 0
-1102 916 975 1029 1030 1078 1079 1080 0
-917 1103 0
-976 1103 0
-1030 1103 0
-1031 1103 0
-1079 1103 0
-1080 1103 0
-1103 917 976 1030 1031 1079 1080 0
-918 1104 0
-977 1104 0
-1031 1104 0
-1080 1104 0
-1104 918 977 1031 1080 0
-8 -67 0
-8 -125 0
-8 -178 0
-9 -68 0
-9 -125 0
-9 -126 0
-9 -178 0
-9 -179 0
-10 -69 0
-10 -126 0
-10 -127 0
-10 -178 0
-10 -179 0
-10 -180 0
-11 -70 0
-11 -127 0
-11 -128 0
-11 -179 0
-11 -180 0
-11 -181 0
-12 -71 0
-12 -128 0
-12 -129 0
-12 -180 0
-12 -181 0
-13 -72 0
-13 -129 0
-13 -181 0
-67 -125 0
-67 -178 0
-68 -125 0
-68 -126 0
-68 -178 0
-68 -179 0
-69 -126 0
-69 -127 0
-69 -178 0
-69 -179 0
-69 -180 0
-70 -127 0
-70 -128 0
-70 -179 0
-70 -180 0
-70 -181 0
-71 -128 0
-71 -129 0
-71 -180 0
-71 -181 0
-72 -129 0
-72 -181 0
-125 -178 0
-125 -179 0
-126 -178 0
-126 -179 0
-126 -180 0
-127 -178 0
-127 -179 0
-127 -180 0
-127 -181 0
-128 -179 0
-128 -180 0
-128 -181 0
-129 -180 0
-129 -181 0
-15 -74 0
-15 -131 0
-15 -183 0
-16 -75 0
-16 -131 0
-16 -132 0
-16 -183 0
-16 -184 0
-17 -76 0
-17 -132 0
-17 -133 0
-17 -183 0
-17 -184 0
-17 -185 0
-18 -77 0
-18 -133 0
-18 -134 0
-18 -184 0
-18 -185 0
-18 -186 0
-19 -78 0
-19 -134 0
-19 -135 0
-19 -185 0
-19 -186 0
-20 -79 0
-20 -135 0
-20 -186 0
-74 -131 0
-74 -183 0
-75 -131 0
-75 -132 0
-75 -183 0
-75 -184 0
-76 -132 0
-76 -133 0
-76 -183 0
-76 -184 0
-76 -185 0
-77 -133 0
-77 -134 0
-77 -184 0
-77 -185 0
-77 -186 0
-78 -134 0
-78 -135 0
-78 -185 0
-78 -186 0
-79 -135 0
-79 -186 0
-131 -183 0
-131 -184 0
-132 -183 0
-132 -184 0
-132 -185 0
-133 -183 0
-133 -184 0
-133 -185 0
-133 -186 0
-134 -184 0
-134 -185 0
-134 -186 0
-135 -185 0
-135 -186 0
-22 -81 0
-22 -137 0
-22 -188 0
-23 -82 0
-23 -137 0
-23 -138 0
-23 -188 0
-23 -189 0
-24 -83 0
-24 -138 0
-24 -139 0
-24 -188 0
-24 -189 0
-24 -190 0
-25 -84 0
-25 -139 0
-25 -140 0
-25 -189 0
-25 -190 0
-25 -191 0
-26 -85 0
-26 -140 0
-26 -141 0
-26 -190 0
-26 -191 0
-27 -86 0
-27 -141 0
-27 -191 0
-81 -137 0
-81 -188 0
-82 -137 0
-82 -138 0
-82 -188 0
-82 -189 0
-83 -138 0
-83 -139 0
-83 -188 0
-83 -189 0
-83 -190 0
-84 -139 0
-84 -140 0
-84 -189 0
-84 -190 0
-84 -191 0
-85 -140 0
-85 -141 0
-85 -190 0
-85 -191 0
-86 -141 0
-86 -191 0
-137 -188 0
-137 -189 0
-138 -188 0
-138 -189 0
-138 -190 0
-139 -188 0
-139 -189 0
-139 -190 0
-139 -191 0
-140 -189 0
-140 -190 0
-140 -191 0
-141 -190 0
-141 -191 0
-29 -88 0
-29 -143 0
-29 -193 0
-30 -89 0
-30 -143 0
-30 -144 0
-30 -193 0
-30 -194 0
-31 -90 0
-31 -144 0
-31 -145 0
-31 -193 0
-31 -194 0
-31 -195 0
-32 -91 0
-32 -145 0
-32 -146 0
-32 -194 0
-32 -195 0
-32 -196 0
-33 -92 0
-33 -146 0
-33 -147 0
-33 -195 0
-33 -196 0
-34 -93 0
-34 -147 0
-34 -196 0
-88 -143 0
-88 -193 0
-89 -143 0
-89 -144 0
-89 -193 0
-89 -194 0
-90 -144 0
-90 -145 0
-90 -193 0
-90 -194 0
-90 -195 0
-91 -145 0
-91 -146 0
-91 -194 0
-91 -195 0
-91 -196 0
-92 -146 0
-92 -147 0
-92 -195 0
-92 -196 0
-93 -147 0
-93 -196 0
-143 -193 0
-143 -194 0
-144 -193 0
-144 -194 0
-144 -195 0
-145 -193 0
-145 -194 0
-145 -195 0
-145 -196 0
-146 -194 0
-146 -195 0
-146 -196 0
-147 -195 0
-147 -196 0
-229 -288 0
-229 -346 0
-229 -399 0
-230 -289 0
-230 -346 0
-230 -347 0
-230 -399 0
-230 -400 0
-231 -290 0
-231 -347 0
-231 -348 0
-231 -399 0
-231 -400 0
-231 -401 0
-232 -291 0
-232 -348 0
-232 -349 0
-232 -400 0
-232 -401 0
-232 -402 0
-233 -292 0
-233 -349 0
-233 -350 0
-233 -401 0
-233 -402 0
-234 -293 0
-234 -350 0
-234 -402 0
-288 -346 0
-288 -399 0
-289 -346 0
-289 -347 0
-289 -399 0
-289 -400 0
-290 -347 0
-290 -348 0
-290 -399 0
-290 -400 0
-290 -401 0
-291 -348 0
-291 -349 0
-291 -400 0
-291 -401 0
-291 -402 0
-292 -349 0
-292 -350 0
-292 -401 0
-292 -402 0
-293 -350 0
-293 -402 0
-346 -399 0
-346 -400 0
-347 -399 0
-347 -400 0
-347 -401 0
-348 -399 0
-348 -400 0
-348 -401 0
-348 -402 0
-349 -400 0
-349 -401 0
-349 -402 0
-350 -401 0
-350 -402 0
-236 -295 0
-236 -352 0
-236 -404 0
-237 -296 0
-237 -352 0
-237 -353 0
-237 -404 0
-237 -405 0
-238 -297 0
-238 -353 0
-238 -354 0
-238 -404 0
-238 -405 0
-238 -406 0
-239 -298 0
-239 -354 0
-239 -355 0
-239 -405 0
-239 -406 0
-239 -407 0
-240 -299 0
-240 -355 0
-240 -356 0
-240 -406 0
-240 -407 0
-241 -300 0
-241 -356 0
-241 -407 0
-295 -352 0
-295 -404 0
-296 -352 0
-296 -353 0
-296 -404 0
-296 -405 0
-297 -353 0
-297 -354 0
-297 -404 0
-297 -405 0
-297 -406 0
-298 -354 0
-298 -355 0
-298 -405 0
-298 -406 0
-298 -407 0
-299 -355 0
-299 -356 0
-299 -406 0
-299 -407 0
-300 -356 0
-300 -407 0
-352 -404 0
-352 -405 0
-353 -404 0
-353 -405 0
-353 -406 0
-354 -404 0
-354 -405 0
-354 -406 0
-354 -407 0
-355 -405 0
-355 -406 0
-355 -407 0
-356 -406 0
-356 -407 0
-243 -302 0
-243 -358 0
-243 -409 0
-244 -303 0
-244 -358 0
-244 -359 0
-244 -409 0
-244 -410 0
-245 -304 0
-245 -359 0
-245 -360 0
-245 -409 0
-245 -410 0
-245 -411 0
-246 -305 0
-246 -360 0
-246 -361 0
-246 -410 0
-246 -411 0
-246 -412 0
-247 -306 0
-247 -361 0
-247 -362 0
-247 -411 0
-247 -412 0
-248 -307 0
-248 -362 0
-248 -412 0
-302 -358 0
-302 -409 0
-303 -358 0
-303 -359 0
-303 -409 0
-303 -410 0
-304 -359 0
-304 -360 0
-304 -409 0
-304 -410 0
-304 -411 0
-305 -360 0
-305 -361 0
-305 -410 0
-305 -411 0
-305 -412 0
-306 -361 0
-306 -362 0
-306 -411 0
-306 -412 0
-307 -362 0
-307 -412 0
-358 -409 0
-358 -410 0
-359 -409 0
-359 -410 0
-359 -411 0
-360 -409 0
-360 -410 0
-360 -411 0
-360 -412 0
-361 -410 0
-361 -411 0
-361 -412 0
-362 -411 0
-362 -412 0
-250 -309 0
-250 -364 0
-250 -414 0
-251 -310 0
-251 -364 0
-251 -365 0
-251 -414 0
-251 -415 0
-252 -311 0
-252 -365 0
-252 -366 0
-252 -414 0
-252 -415 0
-252 -416 0
-253 -312 0
-253 -366 0
-253 -367 0
-253 -415 0
-253 -416 0
-253 -417 0
-254 -313 0
-254 -367 0
-254 -368 0
-254 -416 0
-254 -417 0
-255 -314 0
-255 -368 0
-255 -417 0
-309 -364 0
-309 -414 0
-310 -364 0
-310 -365 0
-310 -414 0
-310 -415 0
-311 -365 0
-311 -366 0
-311 -414 0
-311 -415 0
-311 -416 0
-312 -366 0
-312 -367 0
-312 -415 0
-312 -416 0
-312 -417 0
-313 -367 0
-313 -368 0
-313 -416 0
-313 -417 0
-314 -368 0
-314 -417 0
-364 -414 0
-364 -415 0
-365 -414 0
-365 -415 0
-365 -416 0
-366 -414 0
-366 -415 0
-366 -416 0
-366 -417 0
-367 -415 0
-367 -416 0
-367 -417 0
-368 -416 0
-368 -417 0
-450 -509 0
-450 -567 0
-450 -620 0
-451 -510 0
-451 -567 0
-451 -568 0
-451 -620 0
-451 -621 0
-452 -511 0
-452 -568 0
-452 -569 0
-452 -620 0
-452 -621 0
-452 -622 0
-453 -512 0
-453 -569 0
-453 -570 0
-453 -621 0
-453 -622 0
-453 -623 0
-454 -513 0
-454 -570 0
-454 -571 0
-454 -622 0
-454 -623 0
-455 -514 0
-455 -571 0
-455 -623 0
-509 -567 0
-509 -620 0
-510 -567 0
-510 -568 0
-510 -620 0
-510 -621 0
-511 -568 0
-511 -569 0
-511 -620 0
-511 -621 0
-511 -622 0
-512 -569 0
-512 -570 0
-512 -621 0
-512 -622 0
-512 -623 0
-513 -570 0
-513 -571 0
-513 -622 0
-513 -623 0
-514 -571 0
-514 -623 0
-567 -620 0
-567 -621 0
-568 -620 0
-568 -621 0
-568 -622 0
-569 -620 0
-569 -621 0
-569 -622 0
-569 -623 0
-570 -621 0
-570 -622 0
-570 -623 0
-571 -622 0
-571 -623 0
-457 -516 0
-457 -573 0
-457 -625 0
-458 -517 0
-458 -573 0
-458 -574 0
-458 -625 0
-458 -626 0
-459 -518 0
-459 -574 0
-459 -575 0
-459 -625 0
-459 -626 0
-459 -627 0
-460 -519 0
-460 -575 0
-460 -576 0
-460 -626 0
-460 -627 0
-460 -628 0
-461 -520 0
-461 -576 0
-461 -577 0
-461 -627 0
-461 -628 0
-462 -521 0
-462 -577 0
-462 -628 0
-516 -573 0
-516 -625 0
-517 -573 0
-517 -574 0
-517 -625 0
-517 -626 0
-518 -574 0
-518 -575 0
-518 -625 0
-518 -626 0
-518 -627 0
-519 -575 0
-519 -576 0
-519 -626 0
-519 -627 0
-519 -628 0
-520 -576 0
-520 -577 0
-520 -627 0
-520 -628 0
-521 -577 0
-521 -628 0
-573 -625 0
-573 -626 0
-574 -625 0
-574 -626 0
-574 -627 0
-575 -625 0
-575 -626 0
-575 -627 0
-575 -628 0
-576 -626 0
-576 -627 0
-576 -628 0
-577 -627 0
-577 -628 0
-464 -523 0
-464 -579 0
-464 -630 0
-465 -524 0
-465 -579 0
-465 -580 0
-465 -630 0
-465 -631 0
-466 -525 0
-466 -580 0
-466 -581 0
-466 -630 0
-466 -631 0
-466 -632 0
-467 -526 0
-467 -581 0
-467 -582 0
-467 -631 0
-467 -632 0
-467 -633 0
-468 -527 0
-468 -582 0
-468 -583 0
-468 -632 0
-468 -633 0
-469 -528 0
-469 -583 0
-469 -633 0
-523 -579 0
-523 -630 0
-524 -579 0
-524 -580 0
-524 -630 0
-524 -631 0
-525 -580 0
-525 -581 0
-525 -630 0
-525 -631 0
-525 -632 0
-526 -581 0
-526 -582 0
-526 -631 0
-526 -632 0
-526 -633 0
-527 -582 0
-527 -583 0
-527 -632 0
-527 -633 0
-528 -583 0
-528 -633 0
-579 -630 0
-579 -631 0
-580 -630 0
-580 -631 0
-580 -632 0
-581 -630 0
-581 -631 0
-581 -632 0
-581 -633 0
-582 -631 0
-582 -632 0
-582 -633 0
-583 -632 0
-583 -633 0
-471 -530 0
-471 -585 0
-471 -635 0
-472 -531 0
-472 -585 0
-472 -586 0
-472 -635 0
-472 -636 0
-473 -532 0
-473 -586 0
-473 -587 0
-473 -635 0
-473 -636 0
-473 -637 0
-474 -533 0
-474 -587 0
-474 -588 0
-474 -636 0
-474 -637 0
-474 -638 0
-475 -534 0
-475 -588 0
-475 -589 0
-475 -637 0
-475 -638 0
-476 -535 0
-476 -589 0
-476 -638 0
-530 -585 0
-530 -635 0
-531 -585 0
-531 -586 0
-531 -635 0
-531 -636 0
-532 -586 0
-532 -587 0
-532 -635 0
-532 -636 0
-532 -637 0
-533 -587 0
-533 -588 0
-533 -636 0
-533 -637 0
-533 -638 0
-534 -588 0
-534 -589 0
-534 -637 0
-534 -638 0
-535 -589 0
-535 -638 0
-585 -635 0
-585 -636 0
-586 -635 0
-586 -636 0
-586 -637 0
-587 -635 0
-587 -636 0
-587 -637 0
-587 -638 0
-588 -636 0
-588 -637 0
-588 -638 0
-589 -637 0
-589 -638 0
-671 -730 0
-671 -788 0
-671 -841 0
-672 -731 0
-672 -788 0
-672 -789 0
-672 -841 0
-672 -842 0
-673 -732 0
-673 -789 0
-673 -790 0
-673 -841 0
-673 -842 0
-673 -843 0
-674 -733 0
-674 -790 0
-674 -791 0
-674 -842 0
-674 -843 0
-674 -844 0
-675 -734 0
-675 -791 0
-675 -792 0
-675 -843 0
-675 -844 0
-676 -735 0
-676 -792 0
-676 -844 0
-730 -788 0
-730 -841 0
-731 -788 0
-731 -789 0
-731 -841 0
-731 -842 0
-732 -789 0
-732 -790 0
-732 -841 0
-732 -842 0
-732 -843 0
-733 -790 0
-733 -791 0
-733 -842 0
-733 -843 0
-733 -844 0
-734 -791 0
-734 -792 0
-734 -843 0
-734 -844 0
-735 -792 0
-735 -844 0
-788 -841 0
-788 -842 0
-789 -841 0
-789 -842 0
-789 -843 0
-790 -841 0
-790 -842 0
-790 -843 0
-790 -844 0
-791 -842 0
-791 -843 0
-791 -844 0
-792 -843 0
-792 -844 0
-678 -737 0
-678 -794 0
-678 -846 0
-679 -738 0
-679 -794 0
-679 -795 0
-679 -846 0
-679 -847 0
-680 -739 0
-680 -795 0
-680 -796 0
-680 -846 0
-680 -847 0
-680 -848 0
-681 -740 0
-681 -796 0
-681 -797 0
-681 -847 0
-681 -848 0
-681 -849 0
-682 -741 0
-682 -797 0
-682 -798 0
-682 -848 0
-682 -849 0
-683 -742 0
-683 -798 0
-683 -849 0
-737 -794 0
-737 -846 0
-738 -794 0
-738 -795 0
-738 -846 0
-738 -847 0
-739 -795 0
-739 -796 0
-739 -846 0
-739 -847 0
-739 -848 0
-740 -796 0
-740 -797 0
-740 -847 0
-740 -848 0
-740 -849 0
-741 -797 0
-741 -798 0
-741 -848 0
-741 -849 0
-742 -798 0
-742 -849 0
-794 -846 0
-794 -847 0
-795 -846 0
-795 -847 0
-795 -848 0
-796 -846 0
-796 -847 0
-796 -848 0
-796 -849 0
-797 -847 0
-797 -848 0
-797 -849 0
-798 -848 0
-798 -849 0
-685 -744 0
-685 -800 0
-685 -851 0
-686 -745 0
-686 -800 0
-686 -801 0
-686 -851 0
-686 -852 0
-687 -746 0
-687 -801 0
-687 -802 0
-687 -851 0
-687 -852 0
-687 -853 0
-688 -747 0
-688 -802 0
-688 -803 0
-688 -852 0
-688 -853 0
-688 -854 0
-689 -748 0
-689 -803 0
-689 -804 0
-689 -853 0
-689 -854 0
-690 -749 0
-690 -804 0
-690 -854 0
-744 -800 0
-744 -851 0
-745 -800 0
-745 -801 0
-745 -851 0
-745 -852 0
-746 -801 0
-746 -802 0
-746 -851 0
-746 -852 0
-746 -853 0
-747 -802 0
-747 -803 0
-747 -852 0
-747 -853 0
-747 -854 0
-748 -803 0
-748 -804 0
-748 -853 0
-748 -854 0
-749 -804 0
-749 -854 0
-800 -851 0
-800 -852 0
-801 -851 0
-801 -852 0
-801 -853 0
-802 -851 0
-802 -852 0
-802 -853 0
-802 -854 0
-803 -852 0
-803 -853 0
-803 -854 0
-804 -853 0
-804 -854 0
-692 -751 0
-692 -806 0
-692 -856 0
-693 -752 0
-693 -806 0
-693 -807 0
-693 -856 0
-693 -857 0
-694 -753 0
-694 -807 0
-694 -808 0
-694 -856 0
-694 -857 0
-694 -858 0
-695 -754 0
-695 -808 0
-695 -809 0
-695 -857 0
-695 -858 0
-695 -859 0
-696 -755 0
-696 -809 0
-696 -810 0
-696 -858 0
-696 -859 0
-697 -756 0
-697 -810 0
-697 -859 0
-751 -806 0
-751 -856 0
-752 -806 0
-752 -807 0
-752 -856 0
-752 -857 0
-753 -807 0
-753 -808 0
-753 -856 0
-753 -857 0
-753 -858 0
-754 -808 0
-754 -809 0
-754 -857 0
-754 -858 0
-754 -859 0
-755 -809 0
-755 -810 0
-755 -858 0
-755 -859 0
-756 -810 0
-756 -859 0
-806 -856 0
-806 -857 0
-807 -856 0
-807 -857 0
-807 -858 0
-808 -856 0
-808 -857 0
-808 -858 0
-808 -859 0
-809 -857 0
-809 -858 0
-809 -859 0
-810 -858 0
-810 -859 0
-892 -951 0
-892 -1009 0
-892 -1062 0
-893 -952 0
-893 -1009 0
-893 -1010 0
-893 -1062 0
-893 -1063 0
-894 -953 0
-894 -1010 0
-894 -1011 0
-894 -1062 0
-894 -1063 0
-894 -1064 0
-895 -954 0
-895 -1011 0
-895 -1012 0
-895 -1063 0
-895 -1064 0
-895 -1065 0
-896 -955 0
-896 -1012 0
-896 -1013 0
-896 -1064 0
-896 -1065 0
-897 -956 0
-897 -1013 0
-897 -1065 0
-951 -1009 0
-951 -1062 0
-952 -1009 0
-952 -1010 0
-952 -1062 0
-952 -1063 0
-953 -1010 0
-953 -1011 0
-953 -1062 0
-953 -1063 0
-953 -1064 0
-954 -1011 0
-954 -1012 0
-954 -1063 0
-954 -1064 0
-954 -1065 0
-955 -1012 0
-955 -1013 0
-955 -1064 0
-955 -1065 0
-956 -1013 0
-956 -1065 0
-1009 -1062 0
-1009 -1063 0
-1010 -1062 0
-1010 -1063 0
-1010 -1064 0
-1011 -1062 0
-1011 -1063 0
-1011 -1064 0
-1011 -1065 0
-1012 -1063 0
-1012 -1064 0
-1012 -1065 0
-1013 -1064 0
-1013 -1065 0
-899 -958 0
-899 -1015 0
-899 -1067 0
-900 -959 0
-900 -1015 0
-900 -1016 0
-900 -1067 0
-900 -1068 0
-901 -960 0
-901 -1016 0
-901 -1017 0
-901 -1067 0
-901 -1068 0
-901 -1069 0
-902 -961 0
-902 -1017 0
-902 -1018 0
-902 -1068 0
-902 -1069 0
-902 -1070 0
-903 -962 0
-903 -1018 0
-903 -1019 0
-903 -1069 0
-903 -1070 0
-904 -963 0
-904 -1019 0
-904 -1070 0
-958 -1015 0
-958 -1067 0
-959 -1015 0
-959 -1016 0
-959 -1067 0
-959 -1068 0
-960 -1016 0
-960 -1017 0
-960 -1067 0
-960 -1068 0
-960 -1069 0
-961 -1017 0
-961 -1018 0
-961 -1068 0
-961 -1069 0
-961 -1070 0
-962 -1018 0
-962 -1019 0
-962 -1069 0
-962 -1070 0
-963 -1019 0
-963 -1070 0
-1015 -1067 0
-1015 -1068 0
-1016 -1067 0
-1016 -1068 0
-1016 -1069 0
-1017 -1067 0
-1017 -1068 0
-1017 -1069 0
-1017 -1070 0
-1018 -1068 0
-1018 -1069 0
-1018 -1070 0
-1019 -1069 0
-1019 -1070 0
-906 -965 0
-906 -1021 0
-906 -1072 0
-907 -966 0
-907 -1021 0
-907 -1022 0
-907 -1072 0
-907 -1073 0
-908 -967 0
-908 -1022 0
-908 -1023 0
-908 -1072 0
-908 -1073 0
-908 -1074 0
-909 -968 0
-909 -1023 0
-909 -1024 0
-909 -1073 0
-909 -1074 0
-909 -1075 0
-910 -969 0
-910 -1024 0
-910 -1025 0
-910 -1074 0
-910 -1075 0
-911 -970 0
-911 -1025 0
-911 -1075 0
-965 -1021 0
-965 -1072 0
-966 -1021 0
-966 -1022 0
-966 -1072 0
-966 -1073 0
-967 -1022 0
-967 -1023 0
-967 -1072 0
-967 -1073 0
-967 -1074 0
-968 -1023 0
-968 -1024 0
-968 -1073 0
-968 -1074 0
-968 -1075 0
-969 -1024 0
-969 -1025 0
-969 -1074 0
-969 -1075 0
-970 -1025 0
-970 -1075 0
-1021 -1072 0
-1021 -1073 0
-1022 -1072 0
-1022 -1073 0
-1022 -1074 0
-1023 -1072 0
-1023 -1073 0
-1023 -1074 0
-1023 -1075 0
-1024 -1073 0
-1024 -1074 0
-1024 -1075 0
-1025 -1074 0
-1025 -1075 0
-913 -972 0
-913 -1027 0
-913 -1077 0
-914 -973 0
-914 -1027 0
-914 -1028 0
-914 -1077 0
-914 -1078 0
-915 -974 0
-915 -1028 0
-915 -1029 0
-915 -1077 0
-915 -1078 0
-915 -1079 0
-916 -975 0
-916 -1029 0
-916 -1030 0
-916 -1078 0
-916 -1079 0
-916 -1080 0
-917 -976 0
-917 -1030 0
-917 -1031 0
-917 -1079 0
-917 -1080 0
-918 -977 0
-918 -1031 0
-918 -1080 0
-972 -1027 0
-972 -1077 0
-973 -1027 0
-973 -1028 0
-973 -1077 0
-973 -1078 0
-974 -1028 0
-974 -1029 0
-974 -1077 0
-974 -1078 0
-974 -1079 0
-975 -1029 0
-975 -1030 0
-975 -1078 0
-975 -1079 0
-975 -1080 0
-976 -1030 0
-976 -1031 0
-976 -1079 0
-976 -1080 0
-977 -1031 0
-977 -1080 0
-1027 -1077 0
-1027 -1078 0
-1028 -1077 0
-1028 -1078 0
-1028 -1079 0
-1029 -1077 0
-1029 -1078 0
-1029 -1079 0
-1029 -1080 0
-1030 -1078 0
-1030 -1079 0
-1030 -1080 0
-1031 -1079 0
-1031 -1080 0
-15 197 0
-22 203 0
-29 209 0
-16 198 0
-23 204 0
-30 210 0
-17 199 0
-24 205 0
-31 211 0
-18 200 0
-25 206 0
-32 212 0
-19 201 0
-26 207 0
-33 213 0
-20 202 0
-27 208 0
-34 214 0
-74 197 0
-81 203 0
-88 209 0
-75 198 0
-82 204 0
-89 210 0
-76 199 0
-83 205 0
-90 211 0
-77 200 0
-84 206 0
-91 212 0
-78 201 0
-85 207 0
-92 213 0
-79 202 0
-86 208 0
-93 214 0
-131 197 198 0
-137 203 204 0
-143 209 210 0
-132 198 199 0
-138 204 205 0
-144 210 211 0
-133 199 200 0
-139 205 206 0
-145 211 212 0
-134 200 201 0
-140 206 207 0
-146 212 213 0
-135 201 202 0
-141 207 208 0
-147 213 214 0
-183 197 198 0
-183 197 199 0
-183 198 199 0
-188 203 204 0
-188 203 205 0
-188 204 205 0
-193 209 210 0
-193 209 211 0
-193 210 211 0
-184 198 199 0
-184 198 200 0
-184 199 200 0
-189 204 205 0
-189 204 206 0
-189 205 206 0
-194 210 211 0
-194 210 212 0
-194 211 212 0
-185 199 200 0
-185 199 201 0
-185 200 201 0
-190 205 206 0
-190 205 207 0
-190 206 207 0
-195 211 212 0
-195 211 213 0
-195 212 213 0
-186 200 201 0
-186 200 202 0
-186 201 202 0
-191 206 207 0
-191 206 208 0
-191 207 208 0
-196 212 213 0
-196 212 214 0
-196 213 214 0
-236 418 0
-243 424 0
-250 430 0
-237 419 0
-244 425 0
-251 431 0
-238 420 0
-245 426 0
-252 432 0
-239 421 0
-246 427 0
-253 433 0
-240 422 0
-247 428 0
-254 434 0
-241 423 0
-248 429 0
-255 435 0
-295 418 0
-302 424 0
-309 430 0
-296 419 0
-303 425 0
-310 431 0
-297 420 0
-304 426 0
-311 432 0
-298 421 0
-305 427 0
-312 433 0
-299 422 0
-306 428 0
-313 434 0
-300 423 0
-307 429 0
-314 435 0
-352 418 419 0
-358 424 425 0
-364 430 431 0
-353 419 420 0
-359 425 426 0
-365 431 432 0
-354 420 421 0
-360 426 427 0
-366 432 433 0
-355 421 422 0
-361 427 428 0
-367 433 434 0
-356 422 423 0
-362 428 429 0
-368 434 435 0
-404 418 419 0
-404 418 420 0
-404 419 420 0
-409 424 425 0
-409 424 426 0
-409 425 426 0
-414 430 431 0
-414 430 432 0
-414 431 432 0
-405 419 420 0
-405 419 421 0
-405 420 421 0
-410 425 426 0
-410 425 427 0
-410 426 427 0
-415 431 432 0
-415 431 433 0
-415 432 433 0
-406 420 421 0
-406 420 422 0
-406 421 422 0
-411 426 427 0
-411 426 428 0
-411 427 428 0
-416 432 433 0
-416 432 434 0
-416 433 434 0
-407 421 422 0
-407 421 423 0
-407 422 423 0
-412 427 428 0
-412 427 429 0
-412 428 429 0
-417 433 434 0
-417 433 435 0
-417 434 435 0
-457 639 0
-464 645 0
-471 651 0
-458 640 0
-465 646 0
-472 652 0
-459 641 0
-466 647 0
-473 653 0
-460 642 0
-467 648 0
-474 654 0
-461 643 0
-468 649 0
-475 655 0
-462 644 0
-469 650 0
-476 656 0
-516 639 0
-523 645 0
-530 651 0
-517 640 0
-524 646 0
-531 652 0
-518 641 0
-525 647 0
-532 653 0
-519 642 0
-526 648 0
-533 654 0
-520 643 0
-527 649 0
-534 655 0
-521 644 0
-528 650 0
-535 656 0
-573 639 640 0
-579 645 646 0
-585 651 652 0
-574 640 641 0
-580 646 647 0
-586 652 653 0
-575 641 642 0
-581 647 648 0
-587 653 654 0
-576 642 643 0
-582 648 649 0
-588 654 655 0
-577 643 644 0
-583 649 650 0
-589 655 656 0
-625 639 640 0
-625 639 641 0
-625 640 641 0
-630 645 646 0
-630 645 647 0
-630 646 647 0
-635 651 652 0
-635 651 653 0
-635 652 653 0
-626 640 641 0
-626 640 642 0
-626 641 642 0
-631 646 647 0
-631 646 648 0
-631 647 648 0
-636 652 653 0
-636 652 654 0
-636 653 654 0
-627 641 642 0
-627 641 643 0
-627 642 643 0
-632 647 648 0
-632 647 649 0
-632 648 649 0
-637 653 654 0
-637 653 655 0
-637 654 655 0
-628 642 643 0
-628 642 644 0
-628 643 644 0
-633 648 649 0
-633 648 650 0
-633 649 650 0
-638 654 655 0
-638 654 656 0
-638 655 656 0
-678 860 0
-685 866 0
-692 872 0
-679 861 0
-686 867 0
-693 873 0
-680 862 0
-687 868 0
-694 874 0
-681 863 0
-688 869 0
-695 875 0
-682 864 0
-689 870 0
-696 876 0
-683 865 0
-690 871 0
-697 877 0
-737 860 0
-744 866 0
-751 872 0
-738 861 0
-745 867 0
-752 873 0
-739 862 0
-746 868 0
-753 874 0
-740 863 0
-747 869 0
-754 875 0
-741 864 0
-748 870 0
-755 876 0
-742 865 0
-749 871 0
-756 877 0
-794 860 861 0
-800 866 867 0
-806 872 873 0
-795 861 862 0
-801 867 868 0
-807 873 874 0
-796 862 863 0
-802 868 869 0
-808 874 875 0
-797 863 864 0
-803 869 870 0
-809 875 876 0
-798 864 865 0
-804 870 871 0
-810 876 877 0
-846 860 861 0
-846 860 862 0
-846 861 862 0
-851 866 867 0
-851 866 868 0
-851 867 868 0
-856 872 873 0
-856 872 874 0
-856 873 874 0
-847 861 862 0
-847 861 863 0
-847 862 863 0
-852 867 868 0
-852 867 869 0
-852 868 869 0
-857 873 874 0
-857 873 875 0
-857 874 875 0
-848 862 863 0
-848 862 864 0
-848 863 864 0
-853 868 869 0
-853 868 870 0
-853 869 870 0
-858 874 875 0
-858 874 876 0
-858 875 876 0
-849 863 864 0
-849 863 865 0
-849 864 865 0
-854 869 870 0
-854 869 871 0
-854 870 871 0
-859 875 876 0
-859 875 877 0
-859 876 877 0
-899 1081 0
-906 1087 0
-913 1093 0
-900 1082 0
-907 1088 0
-914 1094 0
-901 1083 0
-908 1089 0
-915 1095 0
-902 1084 0
-909 1090 0
-916 1096 0
-903 1085 0
-910 1091 0
-917 1097 0
-904 1086 0
-911 1092 0
-918 1098 0
-958 1081 0
-965 1087 0
-972 1093 0
-959 1082 0
-966 1088 0
-973 1094 0
-960 1083 0
-967 1089 0
-974 1095 0
-961 1084 0
-968 1090 0
-975 1096 0
-962 1085 0
-969 1091 0
-976 1097 0
-963 1086 0
-970 1092 0
-977 1098 0
-1015 1081 1082 0
-1021 1087 1088 0
-1027 1093 1094 0
-1016 1082 1083 0
-1022 1088 1089 0
-1028 1094 1095 0
-1017 1083 1084 0
-1023 1089 1090 0
-1029 1095 1096 0
-1018 1084 1085 0
-1024 1090 1091 0
-1030 1096 1097 0
-1019 1085 1086 0
-1025 1091 1092 0
-1031 1097 1098 0
-1067 1081 1082 0
-1067 1081 1083 0
-1067 1082 1083 0
-1072 1087 1088 0
-1072 1087 1089 0
-1072 1088 1089 0
-1077 1093 1094 0
-1077 1093 1095 0
-1077 1094 1095 0
-1068 1082 1083 0
-1068 1082 1084 0
-1068 1083 1084 0
-1073 1088 1089 0
-1073 1088 1090 0
-1073 1089 1090 0
-1078 1094 1095 0
-1078 1094 1096 0
-1078 1095 1096 0
-1069 1083 1084 0
-1069 1083 1085 0
-1069 1084 1085 0
-1074 1089 1090 0
-1074 1089 1091 0
-1074 1090 1091 0
-1079 1095 1096 0
-1079 1095 1097 0
-1079 1096 1097 0
-1070 1084 1085 0
-1070 1084 1086 0
-1070 1085 1086 0
-1075 1090 1091 0
-1075 1090 1092 0
-1075 1091 1092 0
-1080 1096 1097 0
-1080 1096 1098 0
-1080 1097 1098 0
-8 -74 -59 0
-8 -81 -59 0
-8 -88 -59 0
-8 -131 -59 0
-8 -137 -59 0
-8 -143 -59 0
-8 -183 -59 0
-8 -188 -59 0
-8 -193 -59 0
-8 74 81 88 131 137 143 183 188 193 59 0
-15 -81 -59 0
-15 -88 -59 0
-15 -137 -59 0
-15 -143 -59 0
-15 -188 -59 0
-15 -193 -59 0
-15 81 88 137 143 188 193 59 0
-22 -88 -59 0
-22 -143 -59 0
-22 -193 -59 0
-22 88 143 193 59 0
-29 59 0
-9 -75 -59 0
-9 -82 -59 0
-9 -89 -59 0
-9 -131 -59 0
-9 -137 -59 0
-9 -143 -59 0
-9 -132 -59 0
-9 -138 -59 0
-9 -144 -59 0
-9 -183 -59 0
-9 -188 -59 0
-9 -193 -59 0
-9 -184 -59 0
-9 -189 -59 0
-9 -194 -59 0
-9 75 82 89 131 137 143 132 138 144 183 188 193 184 189 194 59 0
-16 -82 -59 0
-16 -89 -59 0
-16 -137 -59 0
-16 -143 -59 0
-16 -138 -59 0
-16 -144 -59 0
-16 -188 -59 0
-16 -193 -59 0
-16 -189 -59 0
-16 -194 -59 0
-16 82 89 137 143 138 144 188 193 189 194 59 0
-23 -89 -59 0
-23 -143 -59 0
-23 -144 -59 0
-23 -193 -59 0
-23 -194 -59 0
-23 89 143 144 193 194 59 0
-30 59 0
-10 -76 -59 0
-10 -83 -59 0
-10 -90 -59 0
-10 -132 -59 0
-10 -138 -59 0
-10 -144 -59 0
-10 -133 -59 0
-10 -139 -59 0
-10 -145 -59 0
-10 -183 -59 0
-10 -188 -59 0
-10 -193 -59 0
-10 -184 -59 0
-10 -189 -59 0
-10 -194 -59 0
-10 -185 -59 0
-10 -190 -59 0
-10 -195 -59 0
-10 76 83 90 132 138 144 133 139 145 183 188 193 184 189 194 185 190 195 59 0
-17 -83 -59 0
-17 -90 -59 0
-17 -138 -59 0
-17 -144 -59 0
-17 -139 -59 0
-17 -145 -59 0
-17 -188 -59 0
-17 -193 -59 0
-17 -189 -59 0
-17 -194 -59 0
-17 -190 -59 0
-17 -195 -59 0
-17 83 90 138 144 139 145 188 193 189 194 190 195 59 0
-24 -90 -59 0
-24 -144 -59 0
-24 -145 -59 0
-24 -193 -59 0
-24 -194 -59 0
-24 -195 -59 0
-24 90 144 145 193 194 195 59 0
-31 59 0
-11 -77 -59 0
-11 -84 -59 0
-11 -91 -59 0
-11 -133 -59 0
-11 -139 -59 0
-11 -145 -59 0
-11 -134 -59 0
-11 -140 -59 0
-11 -146 -59 0
-11 -184 -59 0
-11 -189 -59 0
-11 -194 -59 0
-11 -185 -59 0
-11 -190 -59 0
-11 -195 -59 0
-11 -186 -59 0
-11 -191 -59 0
-11 -196 -59 0
-11 77 84 91 133 139 145 134 140 146 184 189 194 185 190 195 186 191 196 59 0
-18 -84 -59 0
-18 -91 -59 0
-18 -139 -59 0
-18 -145 -59 0
-18 -140 -59 0
-18 -146 -59 0
-18 -189 -59 0
-18 -194 -59 0
-18 -190 -59 0
-18 -195 -59 0
-18 -191 -59 0
-18 -196 -59 0
-18 84 91 139 145 140 146 189 194 190 195 191 196 59 0
-25 -91 -59 0
-25 -145 -59 0
-25 -146 -59 0
-25 -194 -59 0
-25 -195 -59 0
-25 -196 -59 0
-25 91 145 146 194 195 196 59 0
-32 59 0
-12 -78 -59 0
-12 -85 -59 0
-12 -92 -59 0
-12 -134 -59 0
-12 -140 -59 0
-12 -146 -59 0
-12 -135 -59 0
-12 -141 -59 0
-12 -147 -59 0
-12 -185 -59 0
-12 -190 -59 0
-12 -195 -59 0
-12 -186 -59 0
-12 -191 -59 0
-12 -196 -59 0
-12 78 85 92 134 140 146 135 141 147 185 190 195 186 191 196 59 0
-19 -85 -59 0
-19 -92 -59 0
-19 -140 -59 0
-19 -146 -59 0
-19 -141 -59 0
-19 -147 -59 0
-19 -190 -59 0
-19 -195 -59 0
-19 -191 -59 0
-19 -196 -59 0
-19 85 92 140 146 141 147 190 195 191 196 59 0
-26 -92 -59 0
-26 -146 -59 0
-26 -147 -59 0
-26 -195 -59 0
-26 -196 -59 0
-26 92 146 147 195 196 59 0
-33 59 0
-13 -79 -59 0
-13 -86 -59 0
-13 -93 -59 0
-13 -135 -59 0
-13 -141 -59 0
-13 -147 -59 0
-13 -186 -59 0
-13 -191 -59 0
-13 -196 -59 0
-13 79 86 93 135 141 147 186 191 196 59 0
-20 -86 -59 0
-20 -93 -59 0
-20 -141 -59 0
-20 -147 -59 0
-20 -191 -59 0
-20 -196 -59 0
-20 86 93 141 147 191 196 59 0
-27 -93 -59 0
-27 -147 -59 0
-27 -196 -59 0
-27 93 147 196 59 0
-34 59 0
-67 -15 -118 0
-67 -22 -118 0
-67 -29 -118 0
-67 -131 -118 0
-67 -137 -118 0
-67 -143 -118 0
-67 -183 -118 0
-67 -188 -118 0
-67 -193 -118 0
-67 15 22 29 131 137 143 183 188 193 118 0
-74 -22 -118 0
-74 -29 -118 0
-74 -137 -118 0
-74 -143 -118 0
-74 -188 -118 0
-74 -193 -118 0
-74 22 29 137 143 188 193 118 0
-81 -29 -118 0
-81 -143 -118 0
-81 -193 -118 0
-81 29 143 193 118 0
-88 118 0
-68 -16 -118 0
-68 -23 -118 0
-68 -30 -118 0
-68 -131 -118 0
-68 -137 -118 0
-68 -143 -118 0
-68 -132 -118 0
-68 -138 -118 0
-68 -144 -118 0
-68 -183 -118 0
-68 -188 -118 0
-68 -193 -118 0
-68 -184 -118 0
-68 -189 -118 0
-68 -194 -118 0
-68 16 23 30 131 137 143 132 138 144 183 188 193 184 189 194 118 0
-75 -23 -118 0
-75 -30 -118 0
-75 -137 -118 0
-75 -143 -118 0
-75 -138 -118 0
-75 -144 -118 0
-75 -188 -118 0
-75 -193 -118 0
-75 -189 -118 0
-75 -194 -118 0
-75 23 30 137 143 138 144 188 193 189 194 118 0
-82 -30 -118 0
-82 -143 -118 0
-82 -144 -118 0
-82 -193 -118 0
-82 -194 -118 0
-82 30 143 144 193 194 118 0
-89 118 0
-69 -17 -118 0
-69 -24 -118 0
-69 -31 -118 0
-69 -132 -118 0
-69 -138 -118 0
-69 -144 -118 0
-69 -133 -118 0
-69 -139 -118 0
-69 -145 -118 0
-69 -183 -118 0
-69 -188 -118 0
-69 -193 -118 0
-69 -184 -118 0
-69 -189 -118 0
-69 -194 -118 0
-69 -185 -118 0
-69 -190 -118 0
-69 -195 -118 0
-69 17 24 31 132 138 144 133 139 145 183 188 193 184 189 194 185 190 195 118 0
-76 -24 -118 0
-76 -31 -118 0
-76 -138 -118 0
-76 -144 -118 0
-76 -139 -118 0
-76 -145 -118 0
-76 -188 -118 0
-76 -193 -118 0
-76 -189 -118 0
-76 -194 -118 0
-76 -190 -118 0
-76 -195 -118 0
-76 24 31 138 144 139 145 188 193 189 194 190 195 118 0
-83 -31 -118 0
-83 -144 -118 0
-83 -145 -118 0
-83 -193 -118 0
-83 -194 -118 0
-83 -195 -118 0
-83 31 144 145 193 194 195 118 0
-90 118 0
-70 -18 -118 0
-70 -25 -118 0
-70 -32 -118 0
-70 -133 -118 0
-70 -139 -118 0
-70 -145 -118 0
-70 -134 -118 0
-70 -140 -118 0
-70 -146 -118 0
-70 -184 -118 0
-70 -189 -118 0
-70 -194 -118 0
-70 -185 -118 0
-70 -190 -118 0
-70 -195 -118 0
-70 -186 -118 0
-70 -191 -118 0
-70 -196 -118 0
-70 18 25 32 133 139 145 134 140 146 184 189 194 185 190 195 186 191 196 118 0
-77 -25 -118 0
-77 -32 -118 0
-77 -139 -118 0
-77 -145 -118 0
-77 -140 -118 0
-77 -146 -118 0
-77 -189 -118 0
-77 -194 -118 0
-77 -190 -118 0
-77 -195 -118 0
-77 -191 -118 0
-77 -196 -118 0
-77 25 32 139 145 140 146 189 194 190 195 191 196 118 0
-84 -32 -118 0
-84 -145 -118 0
-84 -146 -118 0
-84 -194 -118 0
-84 -195 -118 0
-84 -196 -118 0
-84 32 145 146 194 195 196 118 0
-91 118 0
-71 -19 -118 0
-71 -26 -118 0
-71 -33 -118 0
-71 -134 -118 0
-71 -140 -118 0
-71 -146 -118 0
-71 -135 -118 0
-71 -141 -118 0
-71 -147 -118 0
-71 -185 -118 0
-71 -190 -118 0
-71 -195 -118 0
-71 -186 -118 0
-71 -191 -118 0
-71 -196 -118 0
-71 19 26 33 134 140 146 135 141 147 185 190 195 186 191 196 118 0
-78 -26 -118 0
-78 -33 -118 0
-78 -140 -118 0
-78 -146 -118 0
-78 -141 -118 0
-78 -147 -118 0
-78 -190 -118 0
-78 -195 -118 0
-78 -191 -118 0
-78 -196 -118 0
-78 26 33 140 146 141 147 190 195 191 196 118 0
-85 -33 -118 0
-85 -146 -118 0
-85 -147 -118 0
-85 -195 -118 0
-85 -196 -118 0
-85 33 146 147 195 196 118 0
-92 118 0
-72 -20 -118 0
-72 -27 -118 0
-72 -34 -118 0
-72 -135 -118 0
-72 -141 -118 0
-72 -147 -118 0
-72 -186 -118 0
-72 -191 -118 0
-72 -196 -118 0
-72 20 27 34 135 141 147 186 191 196 118 0
-79 -27 -118 0
-79 -34 -118 0
-79 -141 -118 0
-79 -147 -118 0
-79 -191 -118 0
-79 -196 -118 0
-79 27 34 141 147 191 196 118 0
-86 -34 -118 0
-86 -147 -118 0
-86 -196 -118 0
-86 34 147 196 118 0
-93 118 0
-125 -15 -172 0
-125 -22 -172 0
-125 -29 -172 0
-125 -16 -172 0
-125 -23 -172 0
-125 -30 -172 0
-125 -74 -172 0
-125 -81 -172 0
-125 -88 -172 0
-125 -75 -172 0
-125 -82 -172 0
-125 -89 -172 0
-125 -183 -172 0
-125 -188 -172 0
-125 -193 -172 0
-125 -184 -172 0
-125 -189 -172 0
-125 -194 -172 0
-125 15 22 29 16 23 30 74 81 88 75 82 89 183 188 193 184 189 194 172 0
-131 -22 -172 0
-131 -29 -172 0
-131 -23 -172 0
-131 -30 -172 0
-131 -81 -172 0
-131 -88 -172 0
-131 -82 -172 0
-131 -89 -172 0
-131 -188 -172 0
-131 -193 -172 0
-131 -189 -172 0
-131 -194 -172 0
-131 22 29 23 30 81 88 82 89 188 193 189 194 172 0
-137 -29 -172 0
-137 -30 -172 0
-137 -88 -172 0
-137 -89 -172 0
-137 -193 -172 0
-137 -194 -172 0
-137 29 30 88 89 193 194 172 0
-143 172 0
-126 -16 -172 0
-126 -23 -172 0
-126 -30 -172 0
-126 -17 -172 0
-126 -24 -172 0
-126 -31 -172 0
-126 -75 -172 0
-126 -82 -172 0
-126 -89 -172 0
-126 -76 -172 0
-126 -83 -172 0
-126 -90 -172 0
-126 -183 -172 0
-126 -188 -172 0
-126 -193 -172 0
-126 -184 -172 0
-126 -189 -172 0
-126 -194 -172 0
-126 -185 -172 0
-126 -190 -172 0
-126 -195 -172 0
-126 16 23 30 17 24 31 75 82 89 76 83 90 183 188 193 184 189 194 185 190 195 172 0
-132 -23 -172 0
-132 -30 -172 0
-132 -24 -172 0
-132 -31 -172 0
-132 -82 -172 0
-132 -89 -172 0
-132 -83 -172 0
-132 -90 -172 0
-132 -188 -172 0
-132 -193 -172 0
-132 -189 -172 0
-132 -194 -172 0
-132 -190 -172 0
-132 -195 -172 0
-132 23 30 24 31 82 89 83 90 188 193 189 194 190 195 172 0
-138 -30 -172 0
-138 -31 -172 0
-138 -89 -172 0
-138 -90 -172 0
-138 -193 -172 0
-138 -194 -172 0
-138 -195 -172 0
-138 30 31 89 90 193 194 195 172 0
-144 172 0
-127 -17 -172 0
-127 -24 -172 0
-127 -31 -172 0
-127 -18 -172 0
-127 -25 -172 0
-127 -32 -172 0
-127 -76 -172 0
-127 -83 -172 0
-127 -90 -172 0
-127 -77 -172 0
-127 -84 -172 0
-127 -91 -172 0
-127 -183 -172 0
-127 -188 -172 0
-127 -193 -172 0
-127 -184 -172 0
-127 -189 -172 0
-127 -194 -172 0
-127 -185 -172 0
-127 -190 -172 0
-127 -195 -172 0
-127 -186 -172 0
-127 -191 -172 0
-127 -196 -172 0
-127 17 24 31 18 25 32 76 83 90 77 84 91 183 188 193 184 189 194 185 190 195 186 191 196 172 0
-133 -24 -172 0
-133 -31 -172 0
-133 -25 -172 0
-133 -32 -172 0
-133 -83 -172 0
-133 -90 -172 0
-133 -84 -172 0
-133 -91 -172 0
-133 -188 -172 0
-133 -193 -172 0
-133 -189 -172 0
-133 -194 -172 0
-133 -190 -172 0
-133 -195 -172 0
-133 -191 -172 0
-133 -196 -172 0
-133 24 31 25 32 83 90 84 91 188 193 189 194 190 195 191 196 172 0
-139 -31 -172 0
-139 -32 -172 0
-139 -90 -172 0
-139 -91 -172 0
-139 -193 -172 0
-139 -194 -172 0
-139 -195 -172 0
-139 -196 -172 0
-139 31 32 90 91 193 194 195 196 172 0
-145 172 0
-128 -18 -172 0
-128 -25 -172 0
-128 -32 -172 0
-128 -19 -172 0
-128 -26 -172 0
-128 -33 -172 0
-128 -77 -172 0
-128 -84 -172 0
-128 -91 -172 0
-128 -78 -172 0
-128 -85 -172 0
-128 -92 -172 0
-128 -184 -172 0
-128 -189 -172 0
-128 -194 -172 0
-128 -185 -172 0
-128 -190 -172 0
-128 -195 -172 0
-128 -186 -172 0
-128 -191 -172 0
-128 -196 -172 0
-128 18 25 32 19 26 33 77 84 91 78 85 92 184 189 194 185 190 195 186 191 196 172 0
-134 -25 -172 0
-134 -32 -172 0
-134 -26 -172 0
-134 -33 -172 0
-134 -84 -172 0
-134 -91 -172 0
-134 -85 -172 0
-134 -92 -172 0
-134 -189 -172 0
-134 -194 -172 0
-134 -190 -172 0
-134 -195 -172 0
-134 -191 -172 0
-134 -196 -172 0
-134 25 32 26 33 84 91 85 92 189 194 190 195 191 196 172 0
-140 -32 -172 0
-140 -33 -172 0
-140 -91 -172 0
-140 -92 -172 0
-140 -194 -172 0
-140 -195 -172 0
-140 -196 -172 0
-140 32 33 91 92 194 195 196 172 0
-146 172 0
-129 -19 -172 0
-129 -26 -172 0
-129 -33 -172 0
-129 -20 -172 0
-129 -27 -172 0
-129 -34 -172 0
-129 -78 -172 0
-129 -85 -172 0
-129 -92 -172 0
-129 -79 -172 0
-129 -86 -172 0
-129 -93 -172 0
-129 -185 -172 0
-129 -190 -172 0
-129 -195 -172 0
-129 -186 -172 0
-129 -191 -172 0
-129 -196 -172 0
-129 19 26 33 20 27 34 78 85 92 79 86 93 185 190 195 186 191 196 172 0
-135 -26 -172 0
-135 -33 -172 0
-135 -27 -172 0
-135 -34 -172 0
-135 -85 -172 0
-135 -92 -172 0
-135 -86 -172 0
-135 -93 -172 0
-135 -190 -172 0
-135 -195 -172 0
-135 -191 -172 0
-135 -196 -172 0
-135 26 33 27 34 85 92 86 93 190 195 191 196 172 0
-141 -33 -172 0
-141 -34 -172 0
-141 -92 -172 0
-141 -93 -172 0
-141 -195 -172 0
-141 -196 -172 0
-141 33 34 92 93 195 196 172 0
-147 172 0
-178 -15 -221 0
-178 -22 -221 0
-178 -29 -221 0
-178 -16 -221 0
-178 -23 -221 0
-178 -30 -221 0
-178 -17 -221 0
-178 -24 -221 0
-178 -31 -221 0
-178 -74 -221 0
-178 -81 -221 0
-178 -88 -221 0
-178 -75 -221 0
-178 -82 -221 0
-178 -89 -221 0
-178 -76 -221 0
-178 -83 -221 0
-178 -90 -221 0
-178 -131 -221 0
-178 -137 -221 0
-178 -143 -221 0
-178 -132 -221 0
-178 -138 -221 0
-178 -144 -221 0
-178 -133 -221 0
-178 -139 -221 0
-178 -145 -221 0
-178 15 22 29 16 23 30 17 24 31 74 81 88 75 82 89 76 83 90 131 137 143 132 138 144 133 139 145 221 0
-183 -22 -221 0
-183 -29 -221 0
-183 -23 -221 0
-183 -30 -221 0
-183 -24 -221 0
-183 -31 -221 0
-183 -81 -221 0
-183 -88 -221 0
-183 -82 -221 0
-183 -89 -221 0
-183 -83 -221 0
-183 -90 -221 0
-183 -137 -221 0
-183 -143 -221 0
-183 -138 -221 0
-183 -144 -221 0
-183 -139 -221 0
-183 -145 -221 0
-183 22 29 23 30 24 31 81 88 82 89 83 90 137 143 138 144 139 145 221 0
-188 -29 -221 0
-188 -30 -221 0
-188 -31 -221 0
-188 -88 -221 0
-188 -89 -221 0
-188 -90 -221 0
-188 -143 -221 0
-188 -144 -221 0
-188 -145 -221 0
-188 29 30 31 88 89 90 143 144 145 221 0
-193 221 0
-179 -16 -221 0
-179 -23 -221 0
-179 -30 -221 0
-179 -17 -221 0
-179 -24 -221 0
-179 -31 -221 0
-179 -18 -221 0
-179 -25 -221 0
-179 -32 -221 0
-179 -75 -221 0
-179 -82 -221 0
-179 -89 -221 0
-179 -76 -221 0
-179 -83 -221 0
-179 -90 -221 0
-179 -77 -221 0
-179 -84 -221 0
-179 -91 -221 0
-179 -131 -221 0
-179 -137 -221 0
-179 -143 -221 0
-179 -132 -221 0
-179 -138 -221 0
-179 -144 -221 0
-179 -133 -221 0
-179 -139 -221 0
-179 -145 -221 0
-179 -134 -221 0
-179 -140 -221 0
-179 -146 -221 0
-179 16 23 30 17 24 31 18 25 32 75 82 89 76 83 90 77 84 91 131 137 143 132 138 144 133 139 145 134 140 146 221 0
-184 -23 -221 0
-184 -30 -221 0
-184 -24 -221 0
-184 -31 -221 0
-184 -25 -221 0
-184 -32 -221 0
-184 -82 -221 0
-184 -89 -221 0
-184 -83 -221 0
-184 -90 -221 0
-184 -84 -221 0
-184 -91 -221 0
-184 -137 -221 0
-184 -143 -221 0
-184 -138 -221 0
-184 -144 -221 0
-184 -139 -221 0
-184 -145 -221 0
-184 -140 -221 0
-184 -146 -221 0
-184 23 30 24 31 25 32 82 89 83 90 84 91 137 143 138 144 139 145 140 146 221 0
-189 -30 -221 0
-189 -31 -221 0
-189 -32 -221 0
-189 -89 -221 0
-189 -90 -221 0
-189 -91 -221 0
-189 -143 -221 0
-189 -144 -221 0
-189 -145 -221 0
-189 -146 -221 0
-189 30 31 32 89 90 91 143 144 145 146 221 0
-194 221 0
-180 -17 -221 0
-180 -24 -221 0
-180 -31 -221 0
-180 -18 -221 0
-180 -25 -221 0
-180 -32 -221 0
-180 -19 -221 0
-180 -26 -221 0
-180 -33 -221 0
-180 -76 -221 0
-180 -83 -221 0
-180 -90 -221 0
-180 -77 -221 0
-180 -84 -221 0
-180 -91 -221 0
-180 -78 -221 0
-180 -85 -221 0
-180 -92 -221 0
-180 -132 -221 0
-180 -138 -221 0
-180 -144 -221 0
-180 -133 -221 0
-180 -139 -221 0
-180 -145 -221 0
-180 -134 -221 0
-180 -140 -221 0
-180 -146 -221 0
-180 -135 -221 0
-180 -141 -221 0
-180 -147 -221 0
-180 17 24 31 18 25 32 19 26 33 76 83 90 77 84 91 78 85 92 132 138 144 133 139 145 134 140 146 135 141 147 221 0
-185 -24 -221 0
-185 -31 -221 0
-185 -25 -221 0
-185 -32 -221 0
-185 -26 -221 0
-185 -33 -221 0
-185 -83 -221 0
-185 -90 -221 0
-185 -84 -221 0
-185 -91 -221 0
-185 -85 -221 0
-185 -92 -221 0
-185 -138 -221 0
-185 -144 -221 0
-185 -139 -221 0
-185 -145 -221 0
-185 -140 -221 0
-185 -146 -221 0
-185 -141 -221 0
-185 -147 -221 0
-185 24 31 25 32 26 33 83 90 84 91 85 92 138 144 139 145 140 146 141 147 221 0
-190 -31 -221 0
-190 -32 -221 0
-190 -33 -221 0
-190 -90 -221 0
-190 -91 -221 0
-190 -92 -221 0
-190 -144 -221 0
-190 -145 -221 0
-190 -146 -221 0
-190 -147 -221 0
-190 31 32 33 90 91 92 144 145 146 147 221 0
-195 221 0
-181 -18 -221 0
-181 -25 -221 0
-181 -32 -221 0
-181 -19 -221 0
-181 -26 -221 0
-181 -33 -221 0
-181 -20 -221 0
-181 -27 -221 0
-181 -34 -221 0
-181 -77 -221 0
-181 -84 -221 0
-181 -91 -221 0
-181 -78 -221 0
-181 -85 -221 0
-181 -92 -221 0
-181 -79 -221 0
-181 -86 -221 0
-181 -93 -221 0
-181 -133 -221 0
-181 -139 -221 0
-181 -145 -221 0
-181 -134 -221 0
-181 -140 -221 0
-181 -146 -221 0
-181 -135 -221 0
-181 -141 -221 0
-181 -147 -221 0
-181 18 25 32 19 26 33 20 27 34 77 84 91 78 85 92 79 86 93 133 139 145 134 140 146 135 141 147 221 0
-186 -25 -221 0
-186 -32 -221 0
-186 -26 -221 0
-186 -33 -221 0
-186 -27 -221 0
-186 -34 -221 0
-186 -84 -221 0
-186 -91 -221 0
-186 -85 -221 0
-186 -92 -221 0
-186 -86 -221 0
-186 -93 -221 0
-186 -139 -221 0
-186 -145 -221 0
-186 -140 -221 0
-186 -146 -221 0
-186 -141 -221 0
-186 -147 -221 0
-186 25 32 26 33 27 34 84 91 85 92 86 93 139 145 140 146 141 147 221 0
-191 -32 -221 0
-191 -33 -221 0
-191 -34 -221 0
-191 -91 -221 0
-191 -92 -221 0
-191 -93 -221 0
-191 -145 -221 0
-191 -146 -221 0
-191 -147 -221 0
-191 32 33 34 91 92 93 145 146 147 221 0
-196 221 0
-229 -295 -280 0
-229 -302 -280 0
-229 -309 -280 0
-229 -352 -280 0
-229 -358 -280 0
-229 -364 -280 0
-229 -404 -280 0
-229 -409 -280 0
-229 -414 -280 0
-229 295 302 309 352 358 364 404 409 414 280 0
-236 -302 -280 0
-236 -309 -280 0
-236 -358 -280 0
-236 -364 -280 0
-236 -409 -280 0
-236 -414 -280 0
-236 302 309 358 364 409 414 280 0
-243 -309 -280 0
-243 -364 -280 0
-243 -414 -280 0
-243 309 364 414 280 0
-250 280 0
-230 -296 -280 0
-230 -303 -280 0
-230 -310 -280 0
-230 -352 -280 0
-230 -358 -280 0
-230 -364 -280 0
-230 -353 -280 0
-230 -359 -280 0
-230 -365 -280 0
-230 -404 -280 0
-230 -409 -280 0
-230 -414 -280 0
-230 -405 -280 0
-230 -410 -280 0
-230 -415 -280 0
-230 296 303 310 352 358 364 353 359 365 404 409 414 405 410 415 280 0
-237 -303 -280 0
-237 -310 -280 0
-237 -358 -280 0
-237 -364 -280 0
-237 -359 -280 0
-237 -365 -280 0
-237 -409 -280 0
-237 -414 -280 0
-237 -410 -280 0
-237 -415 -280 0
-237 303 310 358 364 359 365 409 414 410 415 280 0
-244 -310 -280 0
-244 -364 -280 0
-244 -365 -280 0
-244 -414 -280 0
-244 -415 -280 0
-244 310 364 365 414 415 280 0
-251 280 0
-231 -297 -280 0
-231 -304 -280 0
-231 -311 -280 0
-231 -353 -280 0
-231 -359 -280 0
-231 -365 -280 0
-231 -354 -280 0
-231 -360 -280 0
-231 -366 -280 0
-231 -404 -280 0
-231 -409 -280 0
-231 -414 -280 0
-231 -405 -280 0
-231 -410 -280 0
-231 -415 -280 0
-231 -406 -280 0
-231 -411 -280 0
-231 -416 -280 0
-231 297 304 311 353 359 365 354 360 366 404 409 414 405 410 415 406 411 416 280 0
-238 -304 -280 0
-238 -311 -280 0
-238 -359 -280 0
-238 -365 -280 0
-238 -360 -280 0
-238 -366 -280 0
-238 -409 -280 0
-238 -414 -280 0
-238 -410 -280 0
-238 -415 -280 0
-238 -411 -280 0
-238 -416 -280 0
-238 304 311 359 365 360 366 409 414 410 415 411 416 280 0
-245 -311 -280 0
-245 -365 -280 0
-245 -366 -280 0
-245 -414 -280 0
-245 -415 -280 0
-245 -416 -280 0
-245 311 365 366 414 415 416 280 0
-252 280 0
-232 -298 -280 0
-232 -305 -280 0
-232 -312 -280 0
-232 -354 -280 0
-232 -360 -280 0
-232 -366 -280 0
-232 -355 -280 0
-232 -361 -280 0
-232 -367 -280 0
-232 -405 -280 0
-232 -410 -280 0
-232 -415 -280 0
-232 -406 -280 0
-232 -411 -280 0
-232 -416 -280 0
-232 -407 -280 0
-232 -412 -280 0
-232 -417 -280 0
-232 298 305 312 354 360 366 355 361 367 405 410 415 406 411 416 407 412 417 280 0
-239 -305 -280 0
-239 -312 -280 0
-239 -360 -280 0
-239 -366 -280 0
-239 -361 -280 0
-239 -367 -280 0
-239 -410 -280 0
-239 -415 -280 0
-239 -411 -280 0
-239 -416 -280 0
-239 -412 -280 0
-239 -417 -280 0
-239 305 312 360 366 361 367 410 415 411 416 412 417 280 0
-246 -312 -280 0
-246 -366 -280 0
-246 -367 -280 0
-246 -415 -280 0
-246 -416 -280 0
-246 -417 -280 0
-246 312 366 367 415 416 417 280 0
-253 280 0
-233 -299 -280 0
-233 -306 -280 0
-233 -313 -280 0
-233 -355 -280 0
-233 -361 -280 0
-233 -367 -280 0
-233 -356 -280 0
-233 -362 -280 0
-233 -368 -280 0
-233 -406 -280 0
-233 -411 -280 0
-233 -416 -280 0
-233 -407 -280 0
-233 -412 -280 0
-233 -417 -280 0
-233 299 306 313 355 361 367 356 362 368 406 411 416 407 412 417 280 0
-240 -306 -280 0
-240 -313 -280 0
-240 -361 -280 0
-240 -367 -280 0
-240 -362 -280 0
-240 -368 -280 0
-240 -411 -280 0
-240 -416 -280 0
-240 -412 -280 0
-240 -417 -280 0
-240 306 313 361 367 362 368 411 416 412 417 280 0
-247 -313 -280 0
-247 -367 -280 0
-247 -368 -280 0
-247 -416 -280 0
-247 -417 -280 0
-247 313 367 368 416 417 280 0
-254 280 0
-234 -300 -280 0
-234 -307 -280 0
-234 -314 -280 0
-234 -356 -280 0
-234 -362 -280 0
-234 -368 -280 0
-234 -407 -280 0
-234 -412 -280 0
-234 -417 -280 0
-234 300 307 314 356 362 368 407 412 417 280 0
-241 -307 -280 0
-241 -314 -280 0
-241 -362 -280 0
-241 -368 -280 0
-241 -412 -280 0
-241 -417 -280 0
-241 307 314 362 368 412 417 280 0
-248 -314 -280 0
-248 -368 -280 0
-248 -417 -280 0
-248 314 368 417 280 0
-255 280 0
-288 -236 -339 0
-288 -243 -339 0
-288 -250 -339 0
-288 -352 -339 0
-288 -358 -339 0
-288 -364 -339 0
-288 -404 -339 0
-288 -409 -339 0
-288 -414 -339 0
-288 236 243 250 352 358 364 404 409 414 339 0
-295 -243 -339 0
-295 -250 -339 0
-295 -358 -339 0
-295 -364 -339 0
-295 -409 -339 0
-295 -414 -339 0
-295 243 250 358 364 409 414 339 0
-302 -250 -339 0
-302 -364 -339 0
-302 -414 -339 0
-302 250 364 414 339 0
-309 339 0
-289 -237 -339 0
-289 -244 -339 0
-289 -251 -339 0
-289 -352 -339 0
-289 -358 -339 0
-289 -364 -339 0
-289 -353 -339 0
-289 -359 -339 0
-289 -365 -339 0
-289 -404 -339 0
-289 -409 -339 0
-289 -414 -339 0
-289 -405 -339 0
-289 -410 -339 0
-289 -415 -339 0
-289 237 244 251 352 358 364 353 359 365 404 409 414 405 410 415 339 0
-296 -244 -339 0
-296 -251 -339 0
-296 -358 -339 0
-296 -364 -339 0
-296 -359 -339 0
-296 -365 -339 0
-296 -409 -339 0
-296 -414 -339 0
-296 -410 -339 0
-296 -415 -339 0
-296 244 251 358 364 359 365 409 414 410 415 339 0
-303 -251 -339 0
-303 -364 -339 0
-303 -365 -339 0
-303 -414 -339 0
-303 -415 -339 0
-303 251 364 365 414 415 339 0
-310 339 0
-290 -238 -339 0
-290 -245 -339 0
-290 -252 -339 0
-290 -353 -339 0
-290 -359 -339 0
-290 -365 -339 0
-290 -354 -339 0
-290 -360 -339 0
-290 -366 -339 0
-290 -404 -339 0
-290 -409 -339 0
-290 -414 -339 0
-290 -405 -339 0
-290 -410 -339 0
-290 -415 -339 0
-290 -406 -339 0
-290 -411 -339 0
-290 -416 -339 0
-290 238 245 252 353 359 365 354 360 366 404 409 414 405 410 415 406 411 416 339 0
-297 -245 -339 0
-297 -252 -339 0
-297 -359 -339 0
-297 -365 -339 0
-297 -360 -339 0
-297 -366 -339 0
-297 -409 -339 0
-297 -414 -339 0
-297 -410 -339 0
-297 -415 -339 0
-297 -411 -339 0
-297 -416 -339 0
-297 245 252 359 365 360 366 409 414 410 415 411 416 339 0
-304 -252 -339 0
-304 -365 -339 0
-304 -366 -339 0
-304 -414 -339 0
-304 -415 -339 0
-304 -416 -339 0
-304 252 365 366 414 415 416 339 0
-311 339 0
-291 -239 -339 0
-291 -246 -339 0
-291 -253 -339 0
-291 -354 -339 0
-291 -360 -339 0
-291 -366 -339 0
-291 -355 -339 0
-291 -361 -339 0
-291 -367 -339 0
-291 -405 -339 0
-291 -410 -339 0
-291 -415 -339 0
-291 -406 -339 0
-291 -411 -339 0
-291 -416 -339 0
-291 -407 -339 0
-291 -412 -339 0
-291 -417 -339 0
-291 239 246 253 354 360 366 355 361 367 405 410 415 406 411 416 407 412 417 339 0
-298 -246 -339 0
-298 -253 -339 0
-298 -360 -339 0
-298 -366 -339 0
-298 -361 -339 0
-298 -367 -339 0
-298 -410 -339 0
-298 -415 -339 0
-298 -411 -339 0
-298 -416 -339 0
-298 -412 -339 0
-298 -417 -339 0
-298 246 253 360 366 361 367 410 415 411 416 412 417 339 0
-305 -253 -339 0
-305 -366 -339 0
-305 -367 -339 0
-305 -415 -339 0
-305 -416 -339 0
-305 -417 -339 0
-305 253 366 367 415 416 417 339 0
-312 339 0
-292 -240 -339 0
-292 -247 -339 0
-292 -254 -339 0
-292 -355 -339 0
-292 -361 -339 0
-292 -367 -339 0
-292 -356 -339 0
-292 -362 -339 0
-292 -368 -339 0
-292 -406 -339 0
-292 -411 -339 0
-292 -416 -339 0
-292 -407 -339 0
-292 -412 -339 0
-292 -417 -339 0
-292 240 247 254 355 361 367 356 362 368 406 411 416 407 412 417 339 0
-299 -247 -339 0
-299 -254 -339 0
-299 -361 -339 0
-299 -367 -339 0
-299 -362 -339 0
-299 -368 -339 0
-299 -411 -339 0
-299 -416 -339 0
-299 -412 -339 0
-299 -417 -339 0
-299 247 254 361 367 362 368 411 416 412 417 339 0
-306 -254 -339 0
-306 -367 -339 0
-306 -368 -339 0
-306 -416 -339 0
-306 -417 -339 0
-306 254 367 368 416 417 339 0
-313 339 0
-293 -241 -339 0
-293 -248 -339 0
-293 -255 -339 0
-293 -356 -339 0
-293 -362 -339 0
-293 -368 -339 0
-293 -407 -339 0
-293 -412 -339 0
-293 -417 -339 0
-293 241 248 255 356 362 368 407 412 417 339 0
-300 -248 -339 0
-300 -255 -339 0
-300 -362 -339 0
-300 -368 -339 0
-300 -412 -339 0
-300 -417 -339 0
-300 248 255 362 368 412 417 339 0
-307 -255 -339 0
-307 -368 -339 0
-307 -417 -339 0
-307 255 368 417 339 0
-314 339 0
-346 -236 -393 0
-346 -243 -393 0
-346 -250 -393 0
-346 -237 -393 0
-346 -244 -393 0
-346 -251 -393 0
-346 -295 -393 0
-346 -302 -393 0
-346 -309 -393 0
-346 -296 -393 0
-346 -303 -393 0
-346 -310 -393 0
-346 -404 -393 0
-346 -409 -393 0
-346 -414 -393 0
-346 -405 -393 0
-346 -410 -393 0
-346 -415 -393 0
-346 236 243 250 237 244 251 295 302 309 296 303 310 404 409 414 405 410 415 393 0
-352 -243 -393 0
-352 -250 -393 0
-352 -244 -393 0
-352 -251 -393 0
-352 -302 -393 0
-352 -309 -393 0
-352 -303 -393 0
-352 -310 -393 0
-352 -409 -393 0
-352 -414 -393 0
-352 -410 -393 0
-352 -415 -393 0
-352 243 250 244 251 302 309 303 310 409 414 410 415 393 0
-358 -250 -393 0
-358 -251 -393 0
-358 -309 -393 0
-358 -310 -393 0
-358 -414 -393 0
-358 -415 -393 0
-358 250 251 309 310 414 415 393 0
-364 393 0
-347 -237 -393 0
-347 -244 -393 0
-347 -251 -393 0
-347 -238 -393 0
-347 -245 -393 0
-347 -252 -393 0
-347 -296 -393 0
-347 -303 -393 0
-347 -310 -393 0
-347 -297 -393 0
-347 -304 -393 0
-347 -311 -393 0
-347 -404 -393 0
-347 -409 -393 0
-347 -414 -393 0
-347 -405 -393 0
-347 -410 -393 0
-347 -415 -393 0
-347 -406 -393 0
-347 -411 -393 0
-347 -416 -393 0
-347 237 244 251 238 245 252 296 303 310 297 304 311 404 409 414 405 410 415 406 411 416 393 0
-353 -244 -393 0
-353 -251 -393 0
-353 -245 -393 0
-353 -252 -393 0
-353 -303 -393 0
-353 -310 -393 0
-353 -304 -393 0
-353 -311 -393 0
-353 -409 -393 0
-353 -414 -393 0
-353 -410 -393 0
-353 -415 -393 0
-353 -411 -393 0
-353 -416 -393 0
-353 244 251 245 252 303 310 304 311 409 414 410 415 411 416 393 0
-359 -251 -393 0
-359 -252 -393 0
-359 -310 -393 0
-359 -311 -393 0
-359 -414 -393 0
-359 -415 -393 0
-359 -416 -393 0
-359 251 252 310 311 414 415 416 393 0
-365 393 0
-348 -238 -393 0
-348 -245 -393 0
-348 -252 -393 0
-348 -239 -393 0
-348 -246 -393 0
-348 -253 -393 0
-348 -297 -393 0
-348 -304 -393 0
-348 -311 -393 0
-348 -298 -393 0
-348 -305 -393 0
-348 -312 -393 0
-348 -404 -393 0
-348 -409 -393 0
-348 -414 -393 0
-348 -405 -393 0
-348 -410 -393 0
-348 -415 -393 0
-348 -406 -393 0
-348 -411 -393 0
-348 -416 -393 0
-348 -407 -393 0
-348 -412 -393 0
-348 -417 -393 0
-348 238 245 252 239 246 253 297 304 311 298 305 312 404 409 414 405 410 415 406 411 416 407 412 417 393 0
-354 -245 -393 0
-354 -252 -393 0
-354 -246 -393 0
-354 -253 -393 0
-354 -304 -393 0
-354 -311 -393 0
-354 -305 -393 0
-354 -312 -393 0
-354 -409 -393 0
-354 -414 -393 0
-354 -410 -393 0
-354 -415 -393 0
-354 -411 -393 0
-354 -416 -393 0
-354 -412 -393 0
-354 -417 -393 0
-354 245 252 246 253 304 311 305 312 409 414 410 415 411 416 412 417 393 0
-360 -252 -393 0
-360 -253 -393 0
-360 -311 -393 0
-360 -312 -393 0
-360 -414 -393 0
-360 -415 -393 0
-360 -416 -393 0
-360 -417 -393 0
-360 252 253 311 312 414 415 416 417 393 0
-366 393 0
-349 -239 -393 0
-349 -246 -393 0
-349 -253 -393 0
-349 -240 -393 0
-349 -247 -393 0
-349 -254 -393 0
-349 -298 -393 0
-349 -305 -393 0
-349 -312 -393 0
-349 -299 -393 0
-349 -306 -393 0
-349 -313 -393 0
-349 -405 -393 0
-349 -410 -393 0
-349 -415 -393 0
-349 -406 -393 0
-349 -411 -393 0
-349 -416 -393 0
-349 -407 -393 0
-349 -412 -393 0
-349 -417 -393 0
-349 239 246 253 240 247 254 298 305 312 299 306 313 405 410 415 406 411 416 407 412 417 393 0
-355 -246 -393 0
-355 -253 -393 0
-355 -247 -393 0
-355 -254 -393 0
-355 -305 -393 0
-355 -312 -393 0
-355 -306 -393 0
-355 -313 -393 0
-355 -410 -393 0
-355 -415 -393 0
-355 -411 -393 0
-355 -416 -393 0
-355 -412 -393 0
-355 -417 -393 0
-355 246 253 247 254 305 312 306 313 410 415 411 416 412 417 393 0
-361 -253 -393 0
-361 -254 -393 0
-361 -312 -393 0
-361 -313 -393 0
-361 -415 -393 0
-361 -416 -393 0
-361 -417 -393 0
-361 253 254 312 313 415 416 417 393 0
-367 393 0
-350 -240 -393 0
-350 -247 -393 0
-350 -254 -393 0
-350 -241 -393 0
-350 -248 -393 0
-350 -255 -393 0
-350 -299 -393 0
-350 -306 -393 0
-350 -313 -393 0
-350 -300 -393 0
-350 -307 -393 0
-350 -314 -393 0
-350 -406 -393 0
-350 -411 -393 0
-350 -416 -393 0
-350 -407 -393 0
-350 -412 -393 0
-350 -417 -393 0
-350 240 247 254 241 248 255 299 306 313 300 307 314 406 411 416 407 412 417 393 0
-356 -247 -393 0
-356 -254 -393 0
-356 -248 -393 0
-356 -255 -393 0
-356 -306 -393 0
-356 -313 -393 0
-356 -307 -393 0
-356 -314 -393 0
-356 -411 -393 0
-356 -416 -393 0
-356 -412 -393 0
-356 -417 -393 0
-356 247 254 248 255 306 313 307 314 411 416 412 417 393 0
-362 -254 -393 0
-362 -255 -393 0
-362 -313 -393 0
-362 -314 -393 0
-362 -416 -393 0
-362 -417 -393 0
-362 254 255 313 314 416 417 393 0
-368 393 0
-399 -236 -442 0
-399 -243 -442 0
-399 -250 -442 0
-399 -237 -442 0
-399 -244 -442 0
-399 -251 -442 0
-399 -238 -442 0
-399 -245 -442 0
-399 -252 -442 0
-399 -295 -442 0
-399 -302 -442 0
-399 -309 -442 0
-399 -296 -442 0
-399 -303 -442 0
-399 -310 -442 0
-399 -297 -442 0
-399 -304 -442 0
-399 -311 -442 0
-399 -352 -442 0
-399 -358 -442 0
-399 -364 -442 0
-399 -353 -442 0
-399 -359 -442 0
-399 -365 -442 0
-399 -354 -442 0
-399 -360 -442 0
-399 -366 -442 0
-399 236 243 250 237 244 251 238 245 252 295 302 309 296 303 310 297 304 311 352 358 364 353 359 365 354 360 366 442 0
-404 -243 -442 0
-404 -250 -442 0
-404 -244 -442 0
-404 -251 -442 0
-404 -245 -442 0
-404 -252 -442 0
-404 -302 -442 0
-404 -309 -442 0
-404 -303 -442 0
-404 -310 -442 0
-404 -304 -442 0
-404 -311 -442 0
-404 -358 -442 0
-404 -364 -442 0
-404 -359 -442 0
-404 -365 -442 0
-404 -360 -442 0
-404 -366 -442 0
-404 243 250 244 251 245 252 302 309 303 310 304 311 358 364 359 365 360 366 442 0
-409 -250 -442 0
-409 -251 -442 0
-409 -252 -442 0
-409 -309 -442 0
-409 -310 -442 0
-409 -311 -442 0
-409 -364 -442 0
-409 -365 -442 0
-409 -366 -442 0
-409 250 251 252 309 310 311 364 365 366 442 0
-414 442 0
-400 -237 -442 0
-400 -244 -442 0
-400 -251 -442 0
-400 -238 -442 0
-400 -245 -442 0
-400 -252 -442 0
-400 -239 -442 0
-400 -246 -442 0
-400 -253 -442 0
-400 -296 -442 0
-400 -303 -442 0
-400 -310 -442 0
-400 -297 -442 0
-400 -304 -442 0
-400 -311 -442 0
-400 -298 -442 0
-400 -305 -442 0
-400 -312 -442 0
-400 -352 -442 0
-400 -358 -442 0
-400 -364 -442 0
-400 -353 -442 0
-400 -359 -442 0
-400 -365 -442 0
-400 -354 -442 0
-400 -360 -442 0
-400 -366 -442 0
-400 -355 -442 0
-400 -361 -442 0
-400 -367 -442 0
-400 237 244 251 238 245 252 239 246 253 296 303 310 297 304 311 298 305 312 352 358 364 353 359 365 354 360 366 355 361 367 442 0
-405 -244 -442 0
-405 -251 -442 0
-405 -245 -442 0
-405 -252 -442 0
-405 -246 -442 0
-405 -253 -442 0
-405 -303 -442 0
-405 -310 -442 0
-405 -304 -442 0
-405 -311 -442 0
-405 -305 -442 0
-405 -312 -442 0
-405 -358 -442 0
-405 -364 -442 0
-405 -359 -442 0
-405 -365 -442 0
-405 -360 -442 0
-405 -366 -442 0
-405 -361 -442 0
-405 -367 -442 0
-405 244 251 245 252 246 253 303 310 304 311 305 312 358 364 359 365 360 366 361 367 442 0
-410 -251 -442 0
-410 -252 -442 0
-410 -253 -442 0
-410 -310 -442 0
-410 -311 -442 0
-410 -312 -442 0
-410 -364 -442 0
-410 -365 -442 0
-410 -366 -442 0
-410 -367 -442 0
-410 251 252 253 310 311 312 364 365 366 367 442 0
-415 442 0
-401 -238 -442 0
-401 -245 -442 0
-401 -252 -442 0
-401 -239 -442 0
-401 -246 -442 0
-401 -253 -442 0
-401 -240 -442 0
-401 -247 -442 0
-401 -254 -442 0
-401 -297 -442 0
-401 -304 -442 0
-401 -311 -442 0
-401 -298 -442 0
-401 -305 -442 0
-401 -312 -442 0
-401 -299 -442 0
-401 -306 -442 0
-401 -313 -442 0
-401 -353 -442 0
-401 -359 -442 0
-401 -365 -442 0
-401 -354 -442 0
-401 -360 -442 0
-401 -366 -442 0
-401 -355 -442 0
-401 -361 -442 0
-401 -367 -442 0
-401 -356 -442 0
-401 -362 -442 0
-401 -368 -442 0
-401 238 245 252 239 246 253 240 247 254 297 304 311 298 305 312 299 306 313 353 359 365 354 360 366 355 361 367 356 362 368 442 0
-406 -245 -442 0
-406 -252 -442 0
-406 -246 -442 0
-406 -253 -442 0
-406 -247 -442 0
-406 -254 -442 0
-406 -304 -442 0
-406 -311 -442 0
-406 -305 -442 0
-406 -312 -442 0
-406 -306 -442 0
-406 -313 -442 0
-406 -359 -442 0
-406 -365 -442 0
-406 -360 -442 0
-406 -366 -442 0
-406 -361 -442 0
-406 -367 -442 0
-406 -362 -442 0
-406 -368 -442 0
-406 245 252 246 253 247 254 304 311 305 312 306 313 359 365 360 366 361 367 362 368 442 0
-411 -252 -442 0
-411 -253 -442 0
-411 -254 -442 0
-411 -311 -442 0
-411 -312 -442 0
-411 -313 -442 0
-411 -365 -442 0
-411 -366 -442 0
-411 -367 -442 0
-411 -368 -442 0
-411 252 253 254 311 312 313 365 366 367 368 442 0
-416 442 0
-402 -239 -442 0
-402 -246 -442 0
-402 -253 -442 0
-402 -240 -442 0
-402 -247 -442 0
-402 -254 -442 0
-402 -241 -442 0
-402 -248 -442 0
-402 -255 -442 0
-402 -298 -442 0
-402 -305 -442 0
-402 -312 -442 0
-402 -299 -442 0
-402 -306 -442 0
-402 -313 -442 0
-402 -300 -442 0
-402 -307 -442 0
-402 -314 -442 0
-402 -354 -442 0
-402 -360 -442 0
-402 -366 -442 0
-402 -355 -442 0
-402 -361 -442 0
-402 -367 -442 0
-402 -356 -442 0
-402 -362 -442 0
-402 -368 -442 0
-402 239 246 253 240 247 254 241 248 255 298 305 312 299 306 313 300 307 314 354 360 366 355 361 367 356 362 368 442 0
-407 -246 -442 0
-407 -253 -442 0
-407 -247 -442 0
-407 -254 -442 0
-407 -248 -442 0
-407 -255 -442 0
-407 -305 -442 0
-407 -312 -442 0
-407 -306 -442 0
-407 -313 -442 0
-407 -307 -442 0
-407 -314 -442 0
-407 -360 -442 0
-407 -366 -442 0
-407 -361 -442 0
-407 -367 -442 0
-407 -362 -442 0
-407 -368 -442 0
-407 246 253 247 254 248 255 305 312 306 313 307 314 360 366 361 367 362 368 442 0
-412 -253 -442 0
-412 -254 -442 0
-412 -255 -442 0
-412 -312 -442 0
-412 -313 -442 0
-412 -314 -442 0
-412 -366 -442 0
-412 -367 -442 0
-412 -368 -442 0
-412 253 254 255 312 313 314 366 367 368 442 0
-417 442 0
-450 -516 -501 0
-450 -523 -501 0
-450 -530 -501 0
-450 -573 -501 0
-450 -579 -501 0
-450 -585 -501 0
-450 -625 -501 0
-450 -630 -501 0
-450 -635 -501 0
-450 516 523 530 573 579 585 625 630 635 501 0
-457 -523 -501 0
-457 -530 -501 0
-457 -579 -501 0
-457 -585 -501 0
-457 -630 -501 0
-457 -635 -501 0
-457 523 530 579 585 630 635 501 0
-464 -530 -501 0
-464 -585 -501 0
-464 -635 -501 0
-464 530 585 635 501 0
-471 501 0
-451 -517 -501 0
-451 -524 -501 0
-451 -531 -501 0
-451 -573 -501 0
-451 -579 -501 0
-451 -585 -501 0
-451 -574 -501 0
-451 -580 -501 0
-451 -586 -501 0
-451 -625 -501 0
-451 -630 -501 0
-451 -635 -501 0
-451 -626 -501 0
-451 -631 -501 0
-451 -636 -501 0
-451 517 524 531 573 579 585 574 580 586 625 630 635 626 631 636 501 0
-458 -524 -501 0
-458 -531 -501 0
-458 -579 -501 0
-458 -585 -501 0
-458 -580 -501 0
-458 -586 -501 0
-458 -630 -501 0
-458 -635 -501 0
-458 -631 -501 0
-458 -636 -501 0
-458 524 531 579 585 580 586 630 635 631 636 501 0
-465 -531 -501 0
-465 -585 -501 0
-465 -586 -501 0
-465 -635 -501 0
-465 -636 -501 0
-465 531 585 586 635 636 501 0
-472 501 0
-452 -518 -501 0
-452 -525 -501 0
-452 -532 -501 0
-452 -574 -501 0
-452 -580 -501 0
-452 -586 -501 0
-452 -575 -501 0
-452 -581 -501 0
-452 -587 -501 0
-452 -625 -501 0
-452 -630 -501 0
-452 -635 -501 0
-452 -626 -501 0
-452 -631 -501 0
-452 -636 -501 0
-452 -627 -501 0
-452 -632 -501 0
-452 -637 -501 0
-452 518 525 532 574 580 586 575 581 587 625 630 635 626 631 636 627 632 637 501 0
-459 -525 -501 0
-459 -532 -501 0
-459 -580 -501 0
-459 -586 -501 0
-459 -581 -501 0
-459 -587 -501 0
-459 -630 -501 0
-459 -635 -501 0
-459 -631 -501 0
-459 -636 -501 0
-459 -632 -501 0
-459 -637 -501 0
-459 525 532 580 586 581 587 630 635 631 636 632 637 501 0
-466 -532 -501 0
-466 -586 -501 0
-466 -587 -501 0
-466 -635 -501 0
-466 -636 -501 0
-466 -637 -501 0
-466 532 586 587 635 636 637 501 0
-473 501 0
-453 -519 -501 0
-453 -526 -501 0
-453 -533 -501 0
-453 -575 -501 0
-453 -581 -501 0
-453 -587 -501 0
-453 -576 -501 0
-453 -582 -501 0
-453 -588 -501 0
-453 -626 -501 0
-453 -631 -501 0
-453 -636 -501 0
-453 -627 -501 0
-453 -632 -501 0
-453 -637 -501 0
-453 -628 -501 0
-453 -633 -501 0
-453 -638 -501 0
-453 519 526 533 575 581 587 576 582 588 626 631 636 627 632 637 628 633 638 501 0
-460 -526 -501 0
-460 -533 -501 0
-460 -581 -501 0
-460 -587 -501 0
-460 -582 -501 0
-460 -588 -501 0
-460 -631 -501 0
-460 -636 -501 0
-460 -632 -501 0
-460 -637 -501 0
-460 -633 -501 0
-460 -638 -501 0
-460 526 533 581 587 582 588 631 636 632 637 633 638 501 0
-467 -533 -501 0
-467 -587 -501 0
-467 -588 -501 0
-467 -636 -501 0
-467 -637 -501 0
-467 -638 -501 0
-467 533 587 588 636 637 638 501 0
-474 501 0
-454 -520 -501 0
-454 -527 -501 0
-454 -534 -501 0
-454 -576 -501 0
-454 -582 -501 0
-454 -588 -501 0
-454 -577 -501 0
-454 -583 -501 0
-454 -589 -501 0
-454 -627 -501 0
-454 -632 -501 0
-454 -637 -501 0
-454 -628 -501 0
-454 -633 -501 0
-454 -638 -501 0
-454 520 527 534 576 582 588 577 583 589 627 632 637 628 633 638 501 0
-461 -527 -501 0
-461 -534 -501 0
-461 -582 -501 0
-461 -588 -501 0
-461 -583 -501 0
-461 -589 -501 0
-461 -632 -501 0
-461 -637 -501 0
-461 -633 -501 0
-461 -638 -501 0
-461 527 534 582 588 583 589 632 637 633 638 501 0
-468 -534 -501 0
-468 -588 -501 0
-468 -589 -501 0
-468 -637 -501 0
-468 -638 -501 0
-468 534 588 589 637 638 501 0
-475 501 0
-455 -521 -501 0
-455 -528 -501 0
-455 -535 -501 0
-455 -577 -501 0
-455 -583 -501 0
-455 -589 -501 0
-455 -628 -501 0
-455 -633 -501 0
-455 -638 -501 0
-455 521 528 535 577 583 589 628 633 638 501 0
-462 -528 -501 0
-462 -535 -501 0
-462 -583 -501 0
-462 -589 -501 0
-462 -633 -501 0
-462 -638 -501 0
-462 528 535 583 589 633 638 501 0
-469 -535 -501 0
-469 -589 -501 0
-469 -638 -501 0
-469 535 589 638 501 0
-476 501 0
-509 -457 -560 0
-509 -464 -560 0
-509 -471 -560 0
-509 -573 -560 0
-509 -579 -560 0
-509 -585 -560 0
-509 -625 -560 0
-509 -630 -560 0
-509 -635 -560 0
-509 457 464 471 573 579 585 625 630 635 560 0
-516 -464 -560 0
-516 -471 -560 0
-516 -579 -560 0
-516 -585 -560 0
-516 -630 -560 0
-516 -635 -560 0
-516 464 471 579 585 630 635 560 0
-523 -471 -560 0
-523 -585 -560 0
-523 -635 -560 0
-523 471 585 635 560 0
-530 560 0
-510 -458 -560 0
-510 -465 -560 0
-510 -472 -560 0
-510 -573 -560 0
-510 -579 -560 0
-510 -585 -560 0
-510 -574 -560 0
-510 -580 -560 0
-510 -586 -560 0
-510 -625 -560 0
-510 -630 -560 0
-510 -635 -560 0
-510 -626 -560 0
-510 -631 -560 0
-510 -636 -560 0
-510 458 465 472 573 579 585 574 580 586 625 630 635 626 631 636 560 0
-517 -465 -560 0
-517 -472 -560 0
-517 -579 -560 0
-517 -585 -560 0
-517 -580 -560 0
-517 -586 -560 0
-517 -630 -560 0
-517 -635 -560 0
-517 -631 -560 0
-517 -636 -560 0
-517 465 472 579 585 580 586 630 635 631 636 560 0
-524 -472 -560 0
-524 -585 -560 0
-524 -586 -560 0
-524 -635 -560 0
-524 -636 -560 0
-524 472 585 586 635 636 560 0
-531 560 0
-511 -459 -560 0
-511 -466 -560 0
-511 -473 -560 0
-511 -574 -560 0
-511 -580 -560 0
-511 -586 -560 0
-511 -575 -560 0
-511 -581 -560 0
-511 -587 -560 0
-511 -625 -560 0
-511 -630 -560 0
-511 -635 -560 0
-511 -626 -560 0
-511 -631 -560 0
-511 -636 -560 0
-511 -627 -560 0
-511 -632 -560 0
-511 -637 -560 0
-511 459 466 473 574 580 586 575 581 587 625 630 635 626 631 636 627 632 637 560 0
-518 -466 -560 0
-518 -473 -560 0
-518 -580 -560 0
-518 -586 -560 0
-518 -581 -560 0
-518 -587 -560 0
-518 -630 -560 0
-518 -635 -560 0
-518 -631 -560 0
-518 -636 -560 0
-518 -632 -560 0
-518 -637 -560 0
-518 466 473 580 586 581 587 630 635 631 636 632 637 560 0
-525 -473 -560 0
-525 -586 -560 0
-525 -587 -560 0
-525 -635 -560 0
-525 -636 -560 0
-525 -637 -560 0
-525 473 586 587 635 636 637 560 0
-532 560 0
-512 -460 -560 0
-512 -467 -560 0
-512 -474 -560 0
-512 -575 -560 0
-512 -581 -560 0
-512 -587 -560 0
-512 -576 -560 0
-512 -582 -560 0
-512 -588 -560 0
-512 -626 -560 0
-512 -631 -560 0
-512 -636 -560 0
-512 -627 -560 0
-512 -632 -560 0
-512 -637 -560 0
-512 -628 -560 0
-512 -633 -560 0
-512 -638 -560 0
-512 460 467 474 575 581 587 576 582 588 626 631 636 627 632 637 628 633 638 560 0
-519 -467 -560 0
-519 -474 -560 0
-519 -581 -560 0
-519 -587 -560 0
-519 -582 -560 0
-519 -588 -560 0
-519 -631 -560 0
-519 -636 -560 0
-519 -632 -560 0
-519 -637 -560 0
-519 -633 -560 0
-519 -638 -560 0
-519 467 474 581 587 582 588 631 636 632 637 633 638 560 0
-526 -474 -560 0
-526 -587 -560 0
-526 -588 -560 0
-526 -636 -560 0
-526 -637 -560 0
-526 -638 -560 0
-526 474 587 588 636 637 638 560 0
-533 560 0
-513 -461 -560 0
-513 -468 -560 0
-513 -475 -560 0
-513 -576 -560 0
-513 -582 -560 0
-513 -588 -560 0
-513 -577 -560 0
-513 -583 -560 0
-513 -589 -560 0
-513 -627 -560 0
-513 -632 -560 0
-513 -637 -560 0
-513 -628 -560 0
-513 -633 -560 0
-513 -638 -560 0
-513 461 468 475 576 582 588 577 583 589 627 632 637 628 633 638 560 0
-520 -468 -560 0
-520 -475 -560 0
-520 -582 -560 0
-520 -588 -560 0
-520 -583 -560 0
-520 -589 -560 0
-520 -632 -560 0
-520 -637 -560 0
-520 -633 -560 0
-520 -638 -560 0
-520 468 475 582 588 583 589 632 637 633 638 560 0
-527 -475 -560 0
-527 -588 -560 0
-527 -589 -560 0
-527 -637 -560 0
-527 -638 -560 0
-527 475 588 589 637 638 560 0
-534 560 0
-514 -462 -560 0
-514 -469 -560 0
-514 -476 -560 0
-514 -577 -560 0
-514 -583 -560 0
-514 -589 -560 0
-514 -628 -560 0
-514 -633 -560 0
-514 -638 -560 0
-514 462 469 476 577 583 589 628 633 638 560 0
-521 -469 -560 0
-521 -476 -560 0
-521 -583 -560 0
-521 -589 -560 0
-521 -633 -560 0
-521 -638 -560 0
-521 469 476 583 589 633 638 560 0
-528 -476 -560 0
-528 -589 -560 0
-528 -638 -560 0
-528 476 589 638 560 0
-535 560 0
-567 -457 -614 0
-567 -464 -614 0
-567 -471 -614 0
-567 -458 -614 0
-567 -465 -614 0
-567 -472 -614 0
-567 -516 -614 0
-567 -523 -614 0
-567 -530 -614 0
-567 -517 -614 0
-567 -524 -614 0
-567 -531 -614 0
-567 -625 -614 0
-567 -630 -614 0
-567 -635 -614 0
-567 -626 -614 0
-567 -631 -614 0
-567 -636 -614 0
-567 457 464 471 458 465 472 516 523 530 517 524 531 625 630 635 626 631 636 614 0
-573 -464 -614 0
-573 -471 -614 0
-573 -465 -614 0
-573 -472 -614 0
-573 -523 -614 0
-573 -530 -614 0
-573 -524 -614 0
-573 -531 -614 0
-573 -630 -614 0
-573 -635 -614 0
-573 -631 -614 0
-573 -636 -614 0
-573 464 471 465 472 523 530 524 531 630 635 631 636 614 0
-579 -471 -614 0
-579 -472 -614 0
-579 -530 -614 0
-579 -531 -614 0
-579 -635 -614 0
-579 -636 -614 0
-579 471 472 530 531 635 636 614 0
-585 614 0
-568 -458 -614 0
-568 -465 -614 0
-568 -472 -614 0
-568 -459 -614 0
-568 -466 -614 0
-568 -473 -614 0
-568 -517 -614 0
-568 -524 -614 0
-568 -531 -614 0
-568 -518 -614 0
-568 -525 -614 0
-568 -532 -614 0
-568 -625 -614 0
-568 -630 -614 0
-568 -635 -614 0
-568 -626 -614 0
-568 -631 -614 0
-568 -636 -614 0
-568 -627 -614 0
-568 -632 -614 0
-568 -637 -614 0
-568 458 465 472 459 466 473 517 524 531 518 525 532 625 630 635 626 631 636 627 632 637 614 0
-574 -465 -614 0
-574 -472 -614 0
-574 -466 -614 0
-574 -473 -614 0
-574 -524 -614 0
-574 -531 -614 0
-574 -525 -614 0
-574 -532 -614 0
-574 -630 -614 0
-574 -635 -614 0
-574 -631 -614 0
-574 -636 -614 0
-574 -632 -614 0
-574 -637 -614 0
-574 465 472 466 473 524 531 525 532 630 635 631 636 632 637 614 0
-580 -472 -614 0
-580 -473 -614 0
-580 -531 -614 0
-580 -532 -614 0
-580 -635 -614 0
-580 -636 -614 0
-580 -637 -614 0
-580 472 473 531 532 635 636 637 614 0
-586 614 0
-569 -459 -614 0
-569 -466 -614 0
-569 -473 -614 0
-569 -460 -614 0
-569 -467 -614 0
-569 -474 -614 0
-569 -518 -614 0
-569 -525 -614 0
-569 -532 -614 0
-569 -519 -614 0
-569 -526 -614 0
-569 -533 -614 0
-569 -625 -614 0
-569 -630 -614 0
-569 -635 -614 0
-569 -626 -614 0
-569 -631 -614 0
-569 -636 -614 0
-569 -627 -614 0
-569 -632 -614 0
-569 -637 -614 0
-569 -628 -614 0
-569 -633 -614 0
-569 -638 -614 0
-569 459 466 473 460 467 474 518 525 532 519 526 533 625 630 635 626 631 636 627 632 637 628 633 638 614 0
-575 -466 -614 0
-575 -473 -614 0
-575 -467 -614 0
-575 -474 -614 0
-575 -525 -614 0
-575 -532 -614 0
-575 -526 -614 0
-575 -533 -614 0
-575 -630 -614 0
-575 -635 -614 0
-575 -631 -614 0
-575 -636 -614 0
-575 -632 -614 0
-575 -637 -614 0
-575 -633 -614 0
-575 -638 -614 0
-575 466 473 467 474 525 532 526 533 630 635 631 636 632 637 633 638 614 0
-581 -473 -614 0
-581 -474 -614 0
-581 -532 -614 0
-581 -533 -614 0
-581 -635 -614 0
-581 -636 -614 0
-581 -637 -614 0
-581 -638 -614 0
-581 473 474 532 533 635 636 637 638 614 0
-587 614 0
-570 -460 -614 0
-570 -467 -614 0
-570 -474 -614 0
-570 -461 -614 0
-570 -468 -614 0
-570 -475 -614 0
-570 -519 -614 0
-570 -526 -614 0
-570 -533 -614 0
-570 -520 -614 0
-570 -527 -614 0
-570 -534 -614 0
-570 -626 -614 0
-570 -631 -614 0
-570 -636 -614 0
-570 -627 -614 0
-570 -632 -614 0
-570 -637 -614 0
-570 -628 -614 0
-570 -633 -614 0
-570 -638 -614 0
-570 460 467 474 461 468 475 519 526 533 520 527 534 626 631 636 627 632 637 628 633 638 614 0
-576 -467 -614 0
-576 -474 -614 0
-576 -468 -614 0
-576 -475 -614 0
-576 -526 -614 0
-576 -533 -614 0
-576 -527 -614 0
-576 -534 -614 0
-576 -631 -614 0
-576 -636 -614 0
-576 -632 -614 0
-576 -637 -614 0
-576 -633 -614 0
-576 -638 -614 0
-576 467 474 468 475 526 533 527 534 631 636 632 637 633 638 614 0
-582 -474 -614 0
-582 -475 -614 0
-582 -533 -614 0
-582 -534 -614 0
-582 -636 -614 0
-582 -637 -614 0
-582 -638 -614 0
-582 474 475 533 534 636 637 638 614 0
-588 614 0
-571 -461 -614 0
-571 -468 -614 0
-571 -475 -614 0
-571 -462 -614 0
-571 -469 -614 0
-571 -476 -614 0
-571 -520 -614 0
-571 -527 -614 0
-571 -534 -614 0
-571 -521 -614 0
-571 -528 -614 0
-571 -535 -614 0
-571 -627 -614 0
-571 -632 -614 0
-571 -637 -614 0
-571 -628 -614 0
-571 -633 -614 0
-571 -638 -614 0
-571 461 468 475 462 469 476 520 527 534 521 528 535 627 632 637 628 633 638 614 0
-577 -468 -614 0
-577 -475 -614 0
-577 -469 -614 0
-577 -476 -614 0
-577 -527 -614 0
-577 -534 -614 0
-577 -528 -614 0
-577 -535 -614 0
-577 -632 -614 0
-577 -637 -614 0
-577 -633 -614 0
-577 -638 -614 0
-577 468 475 469 476 527 534 528 535 632 637 633 638 614 0
-583 -475 -614 0
-583 -476 -614 0
-583 -534 -614 0
-583 -535 -614 0
-583 -637 -614 0
-583 -638 -614 0
-583 475 476 534 535 637 638 614 0
-589 614 0
-620 -457 -663 0
-620 -464 -663 0
-620 -471 -663 0
-620 -458 -663 0
-620 -465 -663 0
-620 -472 -663 0
-620 -459 -663 0
-620 -466 -663 0
-620 -473 -663 0
-620 -516 -663 0
-620 -523 -663 0
-620 -530 -663 0
-620 -517 -663 0
-620 -524 -663 0
-620 -531 -663 0
-620 -518 -663 0
-620 -525 -663 0
-620 -532 -663 0
-620 -573 -663 0
-620 -579 -663 0
-620 -585 -663 0
-620 -574 -663 0
-620 -580 -663 0
-620 -586 -663 0
-620 -575 -663 0
-620 -581 -663 0
-620 -587 -663 0
-620 457 464 471 458 465 472 459 466 473 516 523 530 517 524 531 518 525 532 573 579 585 574 580 586 575 581 587 663 0
-625 -464 -663 0
-625 -471 -663 0
-625 -465 -663 0
-625 -472 -663 0
-625 -466 -663 0
-625 -473 -663 0
-625 -523 -663 0
-625 -530 -663 0
-625 -524 -663 0
-625 -531 -663 0
-625 -525 -663 0
-625 -532 -663 0
-625 -579 -663 0
-625 -585 -663 0
-625 -580 -663 0
-625 -586 -663 0
-625 -581 -663 0
-625 -587 -663 0
-625 464 471 465 472 466 473 523 530 524 531 525 532 579 585 580 586 581 587 663 0
-630 -471 -663 0
-630 -472 -663 0
-630 -473 -663 0
-630 -530 -663 0
-630 -531 -663 0
-630 -532 -663 0
-630 -585 -663 0
-630 -586 -663 0
-630 -587 -663 0
-630 471 472 473 530 531 532 585 586 587 663 0
-635 663 0
-621 -458 -663 0
-621 -465 -663 0
-621 -472 -663 0
-621 -459 -663 0
-621 -466 -663 0
-621 -473 -663 0
-621 -460 -663 0
-621 -467 -663 0
-621 -474 -663 0
-621 -517 -663 0
-621 -524 -663 0
-621 -531 -663 0
-621 -518 -663 0
-621 -525 -663 0
-621 -532 -663 0
-621 -519 -663 0
-621 -526 -663 0
-621 -533 -663 0
-621 -573 -663 0
-621 -579 -663 0
-621 -585 -663 0
-621 -574 -663 0
-621 -580 -663 0
-621 -586 -663 0
-621 -575 -663 0
-621 -581 -663 0
-621 -587 -663 0
-621 -576 -663 0
-621 -582 -663 0
-621 -588 -663 0
-621 458 465 472 459 466 473 460 467 474 517 524 531 518 525 532 519 526 533 573 579 585 574 580 586 575 581 587 576 582 588 663 0
-626 -465 -663 0
-626 -472 -663 0
-626 -466 -663 0
-626 -473 -663 0
-626 -467 -663 0
-626 -474 -663 0
-626 -524 -663 0
-626 -531 -663 0
-626 -525 -663 0
-626 -532 -663 0
-626 -526 -663 0
-626 -533 -663 0
-626 -579 -663 0
-626 -585 -663 0
-626 -580 -663 0
-626 -586 -663 0
-626 -581 -663 0
-626 -587 -663 0
-626 -582 -663 0
-626 -588 -663 0
-626 465 472 466 473 467 474 524 531 525 532 526 533 579 585 580 586 581 587 582 588 663 0
-631 -472 -663 0
-631 -473 -663 0
-631 -474 -663 0
-631 -531 -663 0
-631 -532 -663 0
-631 -533 -663 0
-631 -585 -663 0
-631 -586 -663 0
-631 -587 -663 0
-631 -588 -663 0
-631 472 473 474 531 532 533 585 586 587 588 663 0
-636 663 0
-622 -459 -663 0
-622 -466 -663 0
-622 -473 -663 0
-622 -460 -663 0
-622 -467 -663 0
-622 -474 -663 0
-622 -461 -663 0
-622 -468 -663 0
-622 -475 -663 0
-622 -518 -663 0
-622 -525 -663 0
-622 -532 -663 0
-622 -519 -663 0
-622 -526 -663 0
-622 -533 -663 0
-622 -520 -663 0
-622 -527 -663 0
-622 -534 -663 0
-622 -574 -663 0
-622 -580 -663 0
-622 -586 -663 0
-622 -575 -663 0
-622 -581 -663 0
-622 -587 -663 0
-622 -576 -663 0
-622 -582 -663 0
-622 -588 -663 0
-622 -577 -663 0
-622 -583 -663 0
-622 -589 -663 0
-622 459 466 473 460 467 474 461 468 475 518 525 532 519 526 533 520 527 534 574 580 586 575 581 587 576 582 588 577 583 589 663 0
-627 -466 -663 0
-627 -473 -663 0
-627 -467 -663 0
-627 -474 -663 0
-627 -468 -663 0
-627 -475 -663 0
-627 -525 -663 0
-627 -532 -663 0
-627 -526 -663 0
-627 -533 -663 0
-627 -527 -663 0
-627 -534 -663 0
-627 -580 -663 0
-627 -586 -663 0
-627 -581 -663 0
-627 -587 -663 0
-627 -582 -663 0
-627 -588 -663 0
-627 -583 -663 0
-627 -589 -663 0
-627 466 473 467 474 468 475 525 532 526 533 527 534 580 586 581 587 582 588 583 589 663 0
-632 -473 -663 0
-632 -474 -663 0
-632 -475 -663 0
-632 -532 -663 0
-632 -533 -663 0
-632 -534 -663 0
-632 -586 -663 0
-632 -587 -663 0
-632 -588 -663 0
-632 -589 -663 0
-632 473 474 475 532 533 534 586 587 588 589 663 0
-637 663 0
-623 -460 -663 0
-623 -467 -663 0
-623 -474 -663 0
-623 -461 -663 0
-623 -468 -663 0
-623 -475 -663 0
-623 -462 -663 0
-623 -469 -663 0
-623 -476 -663 0
-623 -519 -663 0
-623 -526 -663 0
-623 -533 -663 0
-623 -520 -663 0
-623 -527 -663 0
-623 -534 -663 0
-623 -521 -663 0
-623 -528 -663 0
-623 -535 -663 0
-623 -575 -663 0
-623 -581 -663 0
-623 -587 -663 0
-623 -576 -663 0
-623 -582 -663 0
-623 -588 -663 0
-623 -577 -663 0
-623 -583 -663 0
-623 -589 -663 0
-623 460 467 474 461 468 475 462 469 476 519 526 533 520 527 534 521 528 535 575 581 587 576 582 588 577 583 589 663 0
-628 -467 -663 0
-628 -474 -663 0
-628 -468 -663 0
-628 -475 -663 0
-628 -469 -663 0
-628 -476 -663 0
-628 -526 -663 0
-628 -533 -663 0
-628 -527 -663 0
-628 -534 -663 0
-628 -528 -663 0
-628 -535 -663 0
-628 -581 -663 0
-628 -587 -663 0
-628 -582 -663 0
-628 -588 -663 0
-628 -583 -663 0
-628 -589 -663 0
-628 467 474 468 475 469 476 526 533 527 534 528 535 581 587 582 588 583 589 663 0
-633 -474 -663 0
-633 -475 -663 0
-633 -476 -663 0
-633 -533 -663 0
-633 -534 -663 0
-633 -535 -663 0
-633 -587 -663 0
-633 -588 -663 0
-633 -589 -663 0
-633 474 475 476 533 534 535 587 588 589 663 0
-638 663 0
-671 -737 -722 0
-671 -744 -722 0
-671 -751 -722 0
-671 -794 -722 0
-671 -800 -722 0
-671 -806 -722 0
-671 -846 -722 0
-671 -851 -722 0
-671 -856 -722 0
-671 737 744 751 794 800 806 846 851 856 722 0
-678 -744 -722 0
-678 -751 -722 0
-678 -800 -722 0
-678 -806 -722 0
-678 -851 -722 0
-678 -856 -722 0
-678 744 751 800 806 851 856 722 0
-685 -751 -722 0
-685 -806 -722 0
-685 -856 -722 0
-685 751 806 856 722 0
-692 722 0
-672 -738 -722 0
-672 -745 -722 0
-672 -752 -722 0
-672 -794 -722 0
-672 -800 -722 0
-672 -806 -722 0
-672 -795 -722 0
-672 -801 -722 0
-672 -807 -722 0
-672 -846 -722 0
-672 -851 -722 0
-672 -856 -722 0
-672 -847 -722 0
-672 -852 -722 0
-672 -857 -722 0
-672 738 745 752 794 800 806 795 801 807 846 851 856 847 852 857 722 0
-679 -745 -722 0
-679 -752 -722 0
-679 -800 -722 0
-679 -806 -722 0
-679 -801 -722 0
-679 -807 -722 0
-679 -851 -722 0
-679 -856 -722 0
-679 -852 -722 0
-679 -857 -722 0
-679 745 752 800 806 801 807 851 856 852 857 722 0
-686 -752 -722 0
-686 -806 -722 0
-686 -807 -722 0
-686 -856 -722 0
-686 -857 -722 0
-686 752 806 807 856 857 722 0
-693 722 0
-673 -739 -722 0
-673 -746 -722 0
-673 -753 -722 0
-673 -795 -722 0
-673 -801 -722 0
-673 -807 -722 0
-673 -796 -722 0
-673 -802 -722 0
-673 -808 -722 0
-673 -846 -722 0
-673 -851 -722 0
-673 -856 -722 0
-673 -847 -722 0
-673 -852 -722 0
-673 -857 -722 0
-673 -848 -722 0
-673 -853 -722 0
-673 -858 -722 0
-673 739 746 753 795 801 807 796 802 808 846 851 856 847 852 857 848 853 858 722 0
-680 -746 -722 0
-680 -753 -722 0
-680 -801 -722 0
-680 -807 -722 0
-680 -802 -722 0
-680 -808 -722 0
-680 -851 -722 0
-680 -856 -722 0
-680 -852 -722 0
-680 -857 -722 0
-680 -853 -722 0
-680 -858 -722 0
-680 746 753 801 807 802 808 851 856 852 857 853 858 722 0
-687 -753 -722 0
-687 -807 -722 0
-687 -808 -722 0
-687 -856 -722 0
-687 -857 -722 0
-687 -858 -722 0
-687 753 807 808 856 857 858 722 0
-694 722 0
-674 -740 -722 0
-674 -747 -722 0
-674 -754 -722 0
-674 -796 -722 0
-674 -802 -722 0
-674 -808 -722 0
-674 -797 -722 0
-674 -803 -722 0
-674 -809 -722 0
-674 -847 -722 0
-674 -852 -722 0
-674 -857 -722 0
-674 -848 -722 0
-674 -853 -722 0
-674 -858 -722 0
-674 -849 -722 0
-674 -854 -722 0
-674 -859 -722 0
-674 740 747 754 796 802 808 797 803 809 847 852 857 848 853 858 849 854 859 722 0
-681 -747 -722 0
-681 -754 -722 0
-681 -802 -722 0
-681 -808 -722 0
-681 -803 -722 0
-681 -809 -722 0
-681 -852 -722 0
-681 -857 -722 0
-681 -853 -722 0
-681 -858 -722 0
-681 -854 -722 0
-681 -859 -722 0
-681 747 754 802 808 803 809 852 857 853 858 854 859 722 0
-688 -754 -722 0
-688 -808 -722 0
-688 -809 -722 0
-688 -857 -722 0
-688 -858 -722 0
-688 -859 -722 0
-688 754 808 809 857 858 859 722 0
-695 722 0
-675 -741 -722 0
-675 -748 -722 0
-675 -755 -722 0
-675 -797 -722 0
-675 -803 -722 0
-675 -809 -722 0
-675 -798 -722 0
-675 -804 -722 0
-675 -810 -722 0
-675 -848 -722 0
-675 -853 -722 0
-675 -858 -722 0
-675 -849 -722 0
-675 -854 -722 0
-675 -859 -722 0
-675 741 748 755 797 803 809 798 804 810 848 853 858 849 854 859 722 0
-682 -748 -722 0
-682 -755 -722 0
-682 -803 -722 0
-682 -809 -722 0
-682 -804 -722 0
-682 -810 -722 0
-682 -853 -722 0
-682 -858 -722 0
-682 -854 -722 0
-682 -859 -722 0
-682 748 755 803 809 804 810 853 858 854 859 722 0
-689 -755 -722 0
-689 -809 -722 0
-689 -810 -722 0
-689 -858 -722 0
-689 -859 -722 0
-689 755 809 810 858 859 722 0
-696 722 0
-676 -742 -722 0
-676 -749 -722 0
-676 -756 -722 0
-676 -798 -722 0
-676 -804 -722 0
-676 -810 -722 0
-676 -849 -722 0
-676 -854 -722 0
-676 -859 -722 0
-676 742 749 756 798 804 810 849 854 859 722 0
-683 -749 -722 0
-683 -756 -722 0
-683 -804 -722 0
-683 -810 -722 0
-683 -854 -722 0
-683 -859 -722 0
-683 749 756 804 810 854 859 722 0
-690 -756 -722 0
-690 -810 -722 0
-690 -859 -722 0
-690 756 810 859 722 0
-697 722 0
-730 -678 -781 0
-730 -685 -781 0
-730 -692 -781 0
-730 -794 -781 0
-730 -800 -781 0
-730 -806 -781 0
-730 -846 -781 0
-730 -851 -781 0
-730 -856 -781 0
-730 678 685 692 794 800 806 846 851 856 781 0
-737 -685 -781 0
-737 -692 -781 0
-737 -800 -781 0
-737 -806 -781 0
-737 -851 -781 0
-737 -856 -781 0
-737 685 692 800 806 851 856 781 0
-744 -692 -781 0
-744 -806 -781 0
-744 -856 -781 0
-744 692 806 856 781 0
-751 781 0
-731 -679 -781 0
-731 -686 -781 0
-731 -693 -781 0
-731 -794 -781 0
-731 -800 -781 0
-731 -806 -781 0
-731 -795 -781 0
-731 -801 -781 0
-731 -807 -781 0
-731 -846 -781 0
-731 -851 -781 0
-731 -856 -781 0
-731 -847 -781 0
-731 -852 -781 0
-731 -857 -781 0
-731 679 686 693 794 800 806 795 801 807 846 851 856 847 852 857 781 0
-738 -686 -781 0
-738 -693 -781 0
-738 -800 -781 0
-738 -806 -781 0
-738 -801 -781 0
-738 -807 -781 0
-738 -851 -781 0
-738 -856 -781 0
-738 -852 -781 0
-738 -857 -781 0
-738 686 693 800 806 801 807 851 856 852 857 781 0
-745 -693 -781 0
-745 -806 -781 0
-745 -807 -781 0
-745 -856 -781 0
-745 -857 -781 0
-745 693 806 807 856 857 781 0
-752 781 0
-732 -680 -781 0
-732 -687 -781 0
-732 -694 -781 0
-732 -795 -781 0
-732 -801 -781 0
-732 -807 -781 0
-732 -796 -781 0
-732 -802 -781 0
-732 -808 -781 0
-732 -846 -781 0
-732 -851 -781 0
-732 -856 -781 0
-732 -847 -781 0
-732 -852 -781 0
-732 -857 -781 0
-732 -848 -781 0
-732 -853 -781 0
-732 -858 -781 0
-732 680 687 694 795 801 807 796 802 808 846 851 856 847 852 857 848 853 858 781 0
-739 -687 -781 0
-739 -694 -781 0
-739 -801 -781 0
-739 -807 -781 0
-739 -802 -781 0
-739 -808 -781 0
-739 -851 -781 0
-739 -856 -781 0
-739 -852 -781 0
-739 -857 -781 0
-739 -853 -781 0
-739 -858 -781 0
-739 687 694 801 807 802 808 851 856 852 857 853 858 781 0
-746 -694 -781 0
-746 -807 -781 0
-746 -808 -781 0
-746 -856 -781 0
-746 -857 -781 0
-746 -858 -781 0
-746 694 807 808 856 857 858 781 0
-753 781 0
-733 -681 -781 0
-733 -688 -781 0
-733 -695 -781 0
-733 -796 -781 0
-733 -802 -781 0
-733 -808 -781 0
-733 -797 -781 0
-733 -803 -781 0
-733 -809 -781 0
-733 -847 -781 0
-733 -852 -781 0
-733 -857 -781 0
-733 -848 -781 0
-733 -853 -781 0
-733 -858 -781 0
-733 -849 -781 0
-733 -854 -781 0
-733 -859 -781 0
-733 681 688 695 796 802 808 797 803 809 847 852 857 848 853 858 849 854 859 781 0
-740 -688 -781 0
-740 -695 -781 0
-740 -802 -781 0
-740 -808 -781 0
-740 -803 -781 0
-740 -809 -781 0
-740 -852 -781 0
-740 -857 -781 0
-740 -853 -781 0
-740 -858 -781 0
-740 -854 -781 0
-740 -859 -781 0
-740 688 695 802 808 803 809 852 857 853 858 854 859 781 0
-747 -695 -781 0
-747 -808 -781 0
-747 -809 -781 0
-747 -857 -781 0
-747 -858 -781 0
-747 -859 -781 0
-747 695 808 809 857 858 859 781 0
-754 781 0
-734 -682 -781 0
-734 -689 -781 0
-734 -696 -781 0
-734 -797 -781 0
-734 -803 -781 0
-734 -809 -781 0
-734 -798 -781 0
-734 -804 -781 0
-734 -810 -781 0
-734 -848 -781 0
-734 -853 -781 0
-734 -858 -781 0
-734 -849 -781 0
-734 -854 -781 0
-734 -859 -781 0
-734 682 689 696 797 803 809 798 804 810 848 853 858 849 854 859 781 0
-741 -689 -781 0
-741 -696 -781 0
-741 -803 -781 0
-741 -809 -781 0
-741 -804 -781 0
-741 -810 -781 0
-741 -853 -781 0
-741 -858 -781 0
-741 -854 -781 0
-741 -859 -781 0
-741 689 696 803 809 804 810 853 858 854 859 781 0
-748 -696 -781 0
-748 -809 -781 0
-748 -810 -781 0
-748 -858 -781 0
-748 -859 -781 0
-748 696 809 810 858 859 781 0
-755 781 0
-735 -683 -781 0
-735 -690 -781 0
-735 -697 -781 0
-735 -798 -781 0
-735 -804 -781 0
-735 -810 -781 0
-735 -849 -781 0
-735 -854 -781 0
-735 -859 -781 0
-735 683 690 697 798 804 810 849 854 859 781 0
-742 -690 -781 0
-742 -697 -781 0
-742 -804 -781 0
-742 -810 -781 0
-742 -854 -781 0
-742 -859 -781 0
-742 690 697 804 810 854 859 781 0
-749 -697 -781 0
-749 -810 -781 0
-749 -859 -781 0
-749 697 810 859 781 0
-756 781 0
-788 -678 -835 0
-788 -685 -835 0
-788 -692 -835 0
-788 -679 -835 0
-788 -686 -835 0
-788 -693 -835 0
-788 -737 -835 0
-788 -744 -835 0
-788 -751 -835 0
-788 -738 -835 0
-788 -745 -835 0
-788 -752 -835 0
-788 -846 -835 0
-788 -851 -835 0
-788 -856 -835 0
-788 -847 -835 0
-788 -852 -835 0
-788 -857 -835 0
-788 678 685 692 679 686 693 737 744 751 738 745 752 846 851 856 847 852 857 835 0
-794 -685 -835 0
-794 -692 -835 0
-794 -686 -835 0
-794 -693 -835 0
-794 -744 -835 0
-794 -751 -835 0
-794 -745 -835 0
-794 -752 -835 0
-794 -851 -835 0
-794 -856 -835 0
-794 -852 -835 0
-794 -857 -835 0
-794 685 692 686 693 744 751 745 752 851 856 852 857 835 0
-800 -692 -835 0
-800 -693 -835 0
-800 -751 -835 0
-800 -752 -835 0
-800 -856 -835 0
-800 -857 -835 0
-800 692 693 751 752 856 857 835 0
-806 835 0
-789 -679 -835 0
-789 -686 -835 0
-789 -693 -835 0
-789 -680 -835 0
-789 -687 -835 0
-789 -694 -835 0
-789 -738 -835 0
-789 -745 -835 0
-789 -752 -835 0
-789 -739 -835 0
-789 -746 -835 0
-789 -753 -835 0
-789 -846 -835 0
-789 -851 -835 0
-789 -856 -835 0
-789 -847 -835 0
-789 -852 -835 0
-789 -857 -835 0
-789 -848 -835 0
-789 -853 -835 0
-789 -858 -835 0
-789 679 686 693 680 687 694 738 745 752 739 746 753 846 851 856 847 852 857 848 853 858 835 0
-795 -686 -835 0
-795 -693 -835 0
-795 -687 -835 0
-795 -694 -835 0
-795 -745 -835 0
-795 -752 -835 0
-795 -746 -835 0
-795 -753 -835 0
-795 -851 -835 0
-795 -856 -835 0
-795 -852 -835 0
-795 -857 -835 0
-795 -853 -835 0
-795 -858 -835 0
-795 686 693 687 694 745 752 746 753 851 856 852 857 853 858 835 0
-801 -693 -835 0
-801 -694 -835 0
-801 -752 -835 0
-801 -753 -835 0
-801 -856 -835 0
-801 -857 -835 0
-801 -858 -835 0
-801 693 694 752 753 856 857 858 835 0
-807 835 0
-790 -680 -835 0
-790 -687 -835 0
-790 -694 -835 0
-790 -681 -835 0
-790 -688 -835 0
-790 -695 -835 0
-790 -739 -835 0
-790 -746 -835 0
-790 -753 -835 0
-790 -740 -835 0
-790 -747 -835 0
-790 -754 -835 0
-790 -846 -835 0
-790 -851 -835 0
-790 -856 -835 0
-790 -847 -835 0
-790 -852 -835 0
-790 -857 -835 0
-790 -848 -835 0
-790 -853 -835 0
-790 -858 -835 0
-790 -849 -835 0
-790 -854 -835 0
-790 -859 -835 0
-790 680 687 694 681 688 695 739 746 753 740 747 754 846 851 856 847 852 857 848 853 858 849 854 859 835 0
-796 -687 -835 0
-796 -694 -835 0
-796 -688 -835 0
-796 -695 -835 0
-796 -746 -835 0
-796 -753 -835 0
-796 -747 -835 0
-796 -754 -835 0
-796 -851 -835 0
-796 -856 -835 0
-796 -852 -835 0
-796 -857 -835 0
-796 -853 -835 0
-796 -858 -835 0
-796 -854 -835 0
-796 -859 -835 0
-796 687 694 688 695 746 753 747 754 851 856 852 857 853 858 854 859 835 0
-802 -694 -835 0
-802 -695 -835 0
-802 -753 -835 0
-802 -754 -835 0
-802 -856 -835 0
-802 -857 -835 0
-802 -858 -835 0
-802 -859 -835 0
-802 694 695 753 754 856 857 858 859 835 0
-808 835 0
-791 -681 -835 0
-791 -688 -835 0
-791 -695 -835 0
-791 -682 -835 0
-791 -689 -835 0
-791 -696 -835 0
-791 -740 -835 0
-791 -747 -835 0
-791 -754 -835 0
-791 -741 -835 0
-791 -748 -835 0
-791 -755 -835 0
-791 -847 -835 0
-791 -852 -835 0
-791 -857 -835 0
-791 -848 -835 0
-791 -853 -835 0
-791 -858 -835 0
-791 -849 -835 0
-791 -854 -835 0
-791 -859 -835 0
-791 681 688 695 682 689 696 740 747 754 741 748 755 847 852 857 848 853 858 849 854 859 835 0
-797 -688 -835 0
-797 -695 -835 0
-797 -689 -835 0
-797 -696 -835 0
-797 -747 -835 0
-797 -754 -835 0
-797 -748 -835 0
-797 -755 -835 0
-797 -852 -835 0
-797 -857 -835 0
-797 -853 -835 0
-797 -858 -835 0
-797 -854 -835 0
-797 -859 -835 0
-797 688 695 689 696 747 754 748 755 852 857 853 858 854 859 835 0
-803 -695 -835 0
-803 -696 -835 0
-803 -754 -835 0
-803 -755 -835 0
-803 -857 -835 0
-803 -858 -835 0
-803 -859 -835 0
-803 695 696 754 755 857 858 859 835 0
-809 835 0
-792 -682 -835 0
-792 -689 -835 0
-792 -696 -835 0
-792 -683 -835 0
-792 -690 -835 0
-792 -697 -835 0
-792 -741 -835 0
-792 -748 -835 0
-792 -755 -835 0
-792 -742 -835 0
-792 -749 -835 0
-792 -756 -835 0
-792 -848 -835 0
-792 -853 -835 0
-792 -858 -835 0
-792 -849 -835 0
-792 -854 -835 0
-792 -859 -835 0
-792 682 689 696 683 690 697 741 748 755 742 749 756 848 853 858 849 854 859 835 0
-798 -689 -835 0
-798 -696 -835 0
-798 -690 -835 0
-798 -697 -835 0
-798 -748 -835 0
-798 -755 -835 0
-798 -749 -835 0
-798 -756 -835 0
-798 -853 -835 0
-798 -858 -835 0
-798 -854 -835 0
-798 -859 -835 0
-798 689 696 690 697 748 755 749 756 853 858 854 859 835 0
-804 -696 -835 0
-804 -697 -835 0
-804 -755 -835 0
-804 -756 -835 0
-804 -858 -835 0
-804 -859 -835 0
-804 696 697 755 756 858 859 835 0
-810 835 0
-841 -678 -884 0
-841 -685 -884 0
-841 -692 -884 0
-841 -679 -884 0
-841 -686 -884 0
-841 -693 -884 0
-841 -680 -884 0
-841 -687 -884 0
-841 -694 -884 0
-841 -737 -884 0
-841 -744 -884 0
-841 -751 -884 0
-841 -738 -884 0
-841 -745 -884 0
-841 -752 -884 0
-841 -739 -884 0
-841 -746 -884 0
-841 -753 -884 0
-841 -794 -884 0
-841 -800 -884 0
-841 -806 -884 0
-841 -795 -884 0
-841 -801 -884 0
-841 -807 -884 0
-841 -796 -884 0
-841 -802 -884 0
-841 -808 -884 0
-841 678 685 692 679 686 693 680 687 694 737 744 751 738 745 752 739 746 753 794 800 806 795 801 807 796 802 808 884 0
-846 -685 -884 0
-846 -692 -884 0
-846 -686 -884 0
-846 -693 -884 0
-846 -687 -884 0
-846 -694 -884 0
-846 -744 -884 0
-846 -751 -884 0
-846 -745 -884 0
-846 -752 -884 0
-846 -746 -884 0
-846 -753 -884 0
-846 -800 -884 0
-846 -806 -884 0
-846 -801 -884 0
-846 -807 -884 0
-846 -802 -884 0
-846 -808 -884 0
-846 685 692 686 693 687 694 744 751 745 752 746 753 800 806 801 807 802 808 884 0
-851 -692 -884 0
-851 -693 -884 0
-851 -694 -884 0
-851 -751 -884 0
-851 -752 -884 0
-851 -753 -884 0
-851 -806 -884 0
-851 -807 -884 0
-851 -808 -884 0
-851 692 693 694 751 752 753 806 807 808 884 0
-856 884 0
-842 -679 -884 0
-842 -686 -884 0
-842 -693 -884 0
-842 -680 -884 0
-842 -687 -884 0
-842 -694 -884 0
-842 -681 -884 0
-842 -688 -884 0
-842 -695 -884 0
-842 -738 -884 0
-842 -745 -884 0
-842 -752 -884 0
-842 -739 -884 0
-842 -746 -884 0
-842 -753 -884 0
-842 -740 -884 0
-842 -747 -884 0
-842 -754 -884 0
-842 -794 -884 0
-842 -800 -884 0
-842 -806 -884 0
-842 -795 -884 0
-842 -801 -884 0
-842 -807 -884 0
-842 -796 -884 0
-842 -802 -884 0
-842 -808 -884 0
-842 -797 -884 0
-842 -803 -884 0
-842 -809 -884 0
-842 679 686 693 680 687 694 681 688 695 738 745 752 739 746 753 740 747 754 794 800 806 795 801 807 796 802 808 797 803 809 884 0
-847 -686 -884 0
-847 -693 -884 0
-847 -687 -884 0
-847 -694 -884 0
-847 -688 -884 0
-847 -695 -884 0
-847 -745 -884 0
-847 -752 -884 0
-847 -746 -884 0
-847 -753 -884 0
-847 -747 -884 0
-847 -754 -884 0
-847 -800 -884 0
-847 -806 -884 0
-847 -801 -884 0
-847 -807 -884 0
-847 -802 -884 0
-847 -808 -884 0
-847 -803 -884 0
-847 -809 -884 0
-847 686 693 687 694 688 695 745 752 746 753 747 754 800 806 801 807 802 808 803 809 884 0
-852 -693 -884 0
-852 -694 -884 0
-852 -695 -884 0
-852 -752 -884 0
-852 -753 -884 0
-852 -754 -884 0
-852 -806 -884 0
-852 -807 -884 0
-852 -808 -884 0
-852 -809 -884 0
-852 693 694 695 752 753 754 806 807 808 809 884 0
-857 884 0
-843 -680 -884 0
-843 -687 -884 0
-843 -694 -884 0
-843 -681 -884 0
-843 -688 -884 0
-843 -695 -884 0
-843 -682 -884 0
-843 -689 -884 0
-843 -696 -884 0
-843 -739 -884 0
-843 -746 -884 0
-843 -753 -884 0
-843 -740 -884 0
-843 -747 -884 0
-843 -754 -884 0
-843 -741 -884 0
-843 -748 -884 0
-843 -755 -884 0
-843 -795 -884 0
-843 -801 -884 0
-843 -807 -884 0
-843 -796 -884 0
-843 -802 -884 0
-843 -808 -884 0
-843 -797 -884 0
-843 -803 -884 0
-843 -809 -884 0
-843 -798 -884 0
-843 -804 -884 0
-843 -810 -884 0
-843 680 687 694 681 688 695 682 689 696 739 746 753 740 747 754 741 748 755 795 801 807 796 802 808 797 803 809 798 804 810 884 0
-848 -687 -884 0
-848 -694 -884 0
-848 -688 -884 0
-848 -695 -884 0
-848 -689 -884 0
-848 -696 -884 0
-848 -746 -884 0
-848 -753 -884 0
-848 -747 -884 0
-848 -754 -884 0
-848 -748 -884 0
-848 -755 -884 0
-848 -801 -884 0
-848 -807 -884 0
-848 -802 -884 0
-848 -808 -884 0
-848 -803 -884 0
-848 -809 -884 0
-848 -804 -884 0
-848 -810 -884 0
-848 687 694 688 695 689 696 746 753 747 754 748 755 801 807 802 808 803 809 804 810 884 0
-853 -694 -884 0
-853 -695 -884 0
-853 -696 -884 0
-853 -753 -884 0
-853 -754 -884 0
-853 -755 -884 0
-853 -807 -884 0
-853 -808 -884 0
-853 -809 -884 0
-853 -810 -884 0
-853 694 695 696 753 754 755 807 808 809 810 884 0
-858 884 0
-844 -681 -884 0
-844 -688 -884 0
-844 -695 -884 0
-844 -682 -884 0
-844 -689 -884 0
-844 -696 -884 0
-844 -683 -884 0
-844 -690 -884 0
-844 -697 -884 0
-844 -740 -884 0
-844 -747 -884 0
-844 -754 -884 0
-844 -741 -884 0
-844 -748 -884 0
-844 -755 -884 0
-844 -742 -884 0
-844 -749 -884 0
-844 -756 -884 0
-844 -796 -884 0
-844 -802 -884 0
-844 -808 -884 0
-844 -797 -884 0
-844 -803 -884 0
-844 -809 -884 0
-844 -798 -884 0
-844 -804 -884 0
-844 -810 -884 0
-844 681 688 695 682 689 696 683 690 697 740 747 754 741 748 755 742 749 756 796 802 808 797 803 809 798 804 810 884 0
-849 -688 -884 0
-849 -695 -884 0
-849 -689 -884 0
-849 -696 -884 0
-849 -690 -884 0
-849 -697 -884 0
-849 -747 -884 0
-849 -754 -884 0
-849 -748 -884 0
-849 -755 -884 0
-849 -749 -884 0
-849 -756 -884 0
-849 -802 -884 0
-849 -808 -884 0
-849 -803 -884 0
-849 -809 -884 0
-849 -804 -884 0
-849 -810 -884 0
-849 688 695 689 696 690 697 747 754 748 755 749 756 802 808 803 809 804 810 884 0
-854 -695 -884 0
-854 -696 -884 0
-854 -697 -884 0
-854 -754 -884 0
-854 -755 -884 0
-854 -756 -884 0
-854 -808 -884 0
-854 -809 -884 0
-854 -810 -884 0
-854 695 696 697 754 755 756 808 809 810 884 0
-859 884 0
-892 -958 -943 0
-892 -965 -943 0
-892 -972 -943 0
-892 -1015 -943 0
-892 -1021 -943 0
-892 -1027 -943 0
-892 -1067 -943 0
-892 -1072 -943 0
-892 -1077 -943 0
-892 958 965 972 1015 1021 1027 1067 1072 1077 943 0
-899 -965 -943 0
-899 -972 -943 0
-899 -1021 -943 0
-899 -1027 -943 0
-899 -1072 -943 0
-899 -1077 -943 0
-899 965 972 1021 1027 1072 1077 943 0
-906 -972 -943 0
-906 -1027 -943 0
-906 -1077 -943 0
-906 972 1027 1077 943 0
-913 943 0
-893 -959 -943 0
-893 -966 -943 0
-893 -973 -943 0
-893 -1015 -943 0
-893 -1021 -943 0
-893 -1027 -943 0
-893 -1016 -943 0
-893 -1022 -943 0
-893 -1028 -943 0
-893 -1067 -943 0
-893 -1072 -943 0
-893 -1077 -943 0
-893 -1068 -943 0
-893 -1073 -943 0
-893 -1078 -943 0
-893 959 966 973 1015 1021 1027 1016 1022 1028 1067 1072 1077 1068 1073 1078 943 0
-900 -966 -943 0
-900 -973 -943 0
-900 -1021 -943 0
-900 -1027 -943 0
-900 -1022 -943 0
-900 -1028 -943 0
-900 -1072 -943 0
-900 -1077 -943 0
-900 -1073 -943 0
-900 -1078 -943 0
-900 966 973 1021 1027 1022 1028 1072 1077 1073 1078 943 0
-907 -973 -943 0
-907 -1027 -943 0
-907 -1028 -943 0
-907 -1077 -943 0
-907 -1078 -943 0
-907 973 1027 1028 1077 1078 943 0
-914 943 0
-894 -960 -943 0
-894 -967 -943 0
-894 -974 -943 0
-894 -1016 -943 0
-894 -1022 -943 0
-894 -1028 -943 0
-894 -1017 -943 0
-894 -1023 -943 0
-894 -1029 -943 0
-894 -1067 -943 0
-894 -1072 -943 0
-894 -1077 -943 0
-894 -1068 -943 0
-894 -1073 -943 0
-894 -1078 -943 0
-894 -1069 -943 0
-894 -1074 -943 0
-894 -1079 -943 0
-894 960 967 974 1016 1022 1028 1017 1023 1029 1067 1072 1077 1068 1073 1078 1069 1074 1079 943 0
-901 -967 -943 0
-901 -974 -943 0
-901 -1022 -943 0
-901 -1028 -943 0
-901 -1023 -943 0
-901 -1029 -943 0
-901 -1072 -943 0
-901 -1077 -943 0
-901 -1073 -943 0
-901 -1078 -943 0
-901 -1074 -943 0
-901 -1079 -943 0
-901 967 974 1022 1028 1023 1029 1072 1077 1073 1078 1074 1079 943 0
-908 -974 -943 0
-908 -1028 -943 0
-908 -1029 -943 0
-908 -1077 -943 0
-908 -1078 -943 0
-908 -1079 -943 0
-908 974 1028 1029 1077 1078 1079 943 0
-915 943 0
-895 -961 -943 0
-895 -968 -943 0
-895 -975 -943 0
-895 -1017 -943 0
-895 -1023 -943 0
-895 -1029 -943 0
-895 -1018 -943 0
-895 -1024 -943 0
-895 -1030 -943 0
-895 -1068 -943 0
-895 -1073 -943 0
-895 -1078 -943 0
-895 -1069 -943 0
-895 -1074 -943 0
-895 -1079 -943 0
-895 -1070 -943 0
-895 -1075 -943 0
-895 -1080 -943 0
-895 961 968 975 1017 1023 1029 1018 1024 1030 1068 1073 1078 1069 1074 1079 1070 1075 1080 943 0
-902 -968 -943 0
-902 -975 -943 0
-902 -1023 -943 0
-902 -1029 -943 0
-902 -1024 -943 0
-902 -1030 -943 0
-902 -1073 -943 0
-902 -1078 -943 0
-902 -1074 -943 0
-902 -1079 -943 0
-902 -1075 -943 0
-902 -1080 -943 0
-902 968 975 1023 1029 1024 1030 1073 1078 1074 1079 1075 1080 943 0
-909 -975 -943 0
-909 -1029 -943 0
-909 -1030 -943 0
-909 -1078 -943 0
-909 -1079 -943 0
-909 -1080 -943 0
-909 975 1029 1030 1078 1079 1080 943 0
-916 943 0
-896 -962 -943 0
-896 -969 -943 0
-896 -976 -943 0
-896 -1018 -943 0
-896 -1024 -943 0
-896 -1030 -943 0
-896 -1019 -943 0
-896 -1025 -943 0
-896 -1031 -943 0
-896 -1069 -943 0
-896 -1074 -943 0
-896 -1079 -943 0
-896 -1070 -943 0
-896 -1075 -943 0
-896 -1080 -943 0
-896 962 969 976 1018 1024 1030 1019 1025 1031 1069 1074 1079 1070 1075 1080 943 0
-903 -969 -943 0
-903 -976 -943 0
-903 -1024 -943 0
-903 -1030 -943 0
-903 -1025 -943 0
-903 -1031 -943 0
-903 -1074 -943 0
-903 -1079 -943 0
-903 -1075 -943 0
-903 -1080 -943 0
-903 969 976 1024 1030 1025 1031 1074 1079 1075 1080 943 0
-910 -976 -943 0
-910 -1030 -943 0
-910 -1031 -943 0
-910 -1079 -943 0
-910 -1080 -943 0
-910 976 1030 1031 1079 1080 943 0
-917 943 0
-897 -963 -943 0
-897 -970 -943 0
-897 -977 -943 0
-897 -1019 -943 0
-897 -1025 -943 0
-897 -1031 -943 0
-897 -1070 -943 0
-897 -1075 -943 0
-897 -1080 -943 0
-897 963 970 977 1019 1025 1031 1070 1075 1080 943 0
-904 -970 -943 0
-904 -977 -943 0
-904 -1025 -943 0
-904 -1031 -943 0
-904 -1075 -943 0
-904 -1080 -943 0
-904 970 977 1025 1031 1075 1080 943 0
-911 -977 -943 0
-911 -1031 -943 0
-911 -1080 -943 0
-911 977 1031 1080 943 0
-918 943 0
-951 -899 -1002 0
-951 -906 -1002 0
-951 -913 -1002 0
-951 -1015 -1002 0
-951 -1021 -1002 0
-951 -1027 -1002 0
-951 -1067 -1002 0
-951 -1072 -1002 0
-951 -1077 -1002 0
-951 899 906 913 1015 1021 1027 1067 1072 1077 1002 0
-958 -906 -1002 0
-958 -913 -1002 0
-958 -1021 -1002 0
-958 -1027 -1002 0
-958 -1072 -1002 0
-958 -1077 -1002 0
-958 906 913 1021 1027 1072 1077 1002 0
-965 -913 -1002 0
-965 -1027 -1002 0
-965 -1077 -1002 0
-965 913 1027 1077 1002 0
-972 1002 0
-952 -900 -1002 0
-952 -907 -1002 0
-952 -914 -1002 0
-952 -1015 -1002 0
-952 -1021 -1002 0
-952 -1027 -1002 0
-952 -1016 -1002 0
-952 -1022 -1002 0
-952 -1028 -1002 0
-952 -1067 -1002 0
-952 -1072 -1002 0
-952 -1077 -1002 0
-952 -1068 -1002 0
-952 -1073 -1002 0
-952 -1078 -1002 0
-952 900 907 914 1015 1021 1027 1016 1022 1028 1067 1072 1077 1068 1073 1078 1002 0
-959 -907 -1002 0
-959 -914 -1002 0
-959 -1021 -1002 0
-959 -1027 -1002 0
-959 -1022 -1002 0
-959 -1028 -1002 0
-959 -1072 -1002 0
-959 -1077 -1002 0
-959 -1073 -1002 0
-959 -1078 -1002 0
-959 907 914 1021 1027 1022 1028 1072 1077 1073 1078 1002 0
-966 -914 -1002 0
-966 -1027 -1002 0
-966 -1028 -1002 0
-966 -1077 -1002 0
-966 -1078 -1002 0
-966 914 1027 1028 1077 1078 1002 0
-973 1002 0
-953 -901 -1002 0
-953 -908 -1002 0
-953 -915 -1002 0
-953 -1016 -1002 0
-953 -1022 -1002 0
-953 -1028 -1002 0
-953 -1017 -1002 0
-953 -1023 -1002 0
-953 -1029 -1002 0
-953 -1067 -1002 0
-953 -1072 -1002 0
-953 -1077 -1002 0
-953 -1068 -1002 0
-953 -1073 -1002 0
-953 -1078 -1002 0
-953 -1069 -1002 0
-953 -1074 -1002 0
-953 -1079 -1002 0
-953 901 908 915 1016 1022 1028 1017 1023 1029 1067 1072 1077 1068 1073 1078 1069 1074 1079 1002 0
-960 -908 -1002 0
-960 -915 -1002 0
-960 -1022 -1002 0
-960 -1028 -1002 0
-960 -1023 -1002 0
-960 -1029 -1002 0
-960 -1072 -1002 0
-960 -1077 -1002 0
-960 -1073 -1002 0
-960 -1078 -1002 0
-960 -1074 -1002 0
-960 -1079 -1002 0
-960 908 915 1022 1028 1023 1029 1072 1077 1073 1078 1074 1079 1002 0
-967 -915 -1002 0
-967 -1028 -1002 0
-967 -1029 -1002 0
-967 -1077 -1002 0
-967 -1078 -1002 0
-967 -1079 -1002 0
-967 915 1028 1029 1077 1078 1079 1002 0
-974 1002 0
-954 -902 -1002 0
-954 -909 -1002 0
-954 -916 -1002 0
-954 -1017 -1002 0
-954 -1023 -1002 0
-954 -1029 -1002 0
-954 -1018 -1002 0
-954 -1024 -1002 0
-954 -1030 -1002 0
-954 -1068 -1002 0
-954 -1073 -1002 0
-954 -1078 -1002 0
-954 -1069 -1002 0
-954 -1074 -1002 0
-954 -1079 -1002 0
-954 -1070 -1002 0
-954 -1075 -1002 0
-954 -1080 -1002 0
-954 902 909 916 1017 1023 1029 1018 1024 1030 1068 1073 1078 1069 1074 1079 1070 1075 1080 1002 0
-961 -909 -1002 0
-961 -916 -1002 0
-961 -1023 -1002 0
-961 -1029 -1002 0
-961 -1024 -1002 0
-961 -1030 -1002 0
-961 -1073 -1002 0
-961 -1078 -1002 0
-961 -1074 -1002 0
-961 -1079 -1002 0
-961 -1075 -1002 0
-961 -1080 -1002 0
-961 909 916 1023 1029 1024 1030 1073 1078 1074 1079 1075 1080 1002 0
-968 -916 -1002 0
-968 -1029 -1002 0
-968 -1030 -1002 0
-968 -1078 -1002 0
-968 -1079 -1002 0
-968 -1080 -1002 0
-968 916 1029 1030 1078 1079 1080 1002 0
-975 1002 0
-955 -903 -1002 0
-955 -910 -1002 0
-955 -917 -1002 0
-955 -1018 -1002 0
-955 -1024 -1002 0
-955 -1030 -1002 0
-955 -1019 -1002 0
-955 -1025 -1002 0
-955 -1031 -1002 0
-955 -1069 -1002 0
-955 -1074 -1002 0
-955 -1079 -1002 0
-955 -1070 -1002 0
-955 -1075 -1002 0
-955 -1080 -1002 0
-955 903 910 917 1018 1024 1030 1019 1025 1031 1069 1074 1079 1070 1075 1080 1002 0
-962 -910 -1002 0
-962 -917 -1002 0
-962 -1024 -1002 0
-962 -1030 -1002 0
-962 -1025 -1002 0
-962 -1031 -1002 0
-962 -1074 -1002 0
-962 -1079 -1002 0
-962 -1075 -1002 0
-962 -1080 -1002 0
-962 910 917 1024 1030 1025 1031 1074 1079 1075 1080 1002 0
-969 -917 -1002 0
-969 -1030 -1002 0
-969 -1031 -1002 0
-969 -1079 -1002 0
-969 -1080 -1002 0
-969 917 1030 1031 1079 1080 1002 0
-976 1002 0
-956 -904 -1002 0
-956 -911 -1002 0
-956 -918 -1002 0
-956 -1019 -1002 0
-956 -1025 -1002 0
-956 -1031 -1002 0
-956 -1070 -1002 0
-956 -1075 -1002 0
-956 -1080 -1002 0
-956 904 911 918 1019 1025 1031 1070 1075 1080 1002 0
-963 -911 -1002 0
-963 -918 -1002 0
-963 -1025 -1002 0
-963 -1031 -1002 0
-963 -1075 -1002 0
-963 -1080 -1002 0
-963 911 918 1025 1031 1075 1080 1002 0
-970 -918 -1002 0
-970 -1031 -1002 0
-970 -1080 -1002 0
-970 918 1031 1080 1002 0
-977 1002 0
-1009 -899 -1056 0
-1009 -906 -1056 0
-1009 -913 -1056 0
-1009 -900 -1056 0
-1009 -907 -1056 0
-1009 -914 -1056 0
-1009 -958 -1056 0
-1009 -965 -1056 0
-1009 -972 -1056 0
-1009 -959 -1056 0
-1009 -966 -1056 0
-1009 -973 -1056 0
-1009 -1067 -1056 0
-1009 -1072 -1056 0
-1009 -1077 -1056 0
-1009 -1068 -1056 0
-1009 -1073 -1056 0
-1009 -1078 -1056 0
-1009 899 906 913 900 907 914 958 965 972 959 966 973 1067 1072 1077 1068 1073 1078 1056 0
-1015 -906 -1056 0
-1015 -913 -1056 0
-1015 -907 -1056 0
-1015 -914 -1056 0
-1015 -965 -1056 0
-1015 -972 -1056 0
-1015 -966 -1056 0
-1015 -973 -1056 0
-1015 -1072 -1056 0
-1015 -1077 -1056 0
-1015 -1073 -1056 0
-1015 -1078 -1056 0
-1015 906 913 907 914 965 972 966 973 1072 1077 1073 1078 1056 0
-1021 -913 -1056 0
-1021 -914 -1056 0
-1021 -972 -1056 0
-1021 -973 -1056 0
-1021 -1077 -1056 0
-1021 -1078 -1056 0
-1021 913 914 972 973 1077 1078 1056 0
-1027 1056 0
-1010 -900 -1056 0
-1010 -907 -1056 0
-1010 -914 -1056 0
-1010 -901 -1056 0
-1010 -908 -1056 0
-1010 -915 -1056 0
-1010 -959 -1056 0
-1010 -966 -1056 0
-1010 -973 -1056 0
-1010 -960 -1056 0
-1010 -967 -1056 0
-1010 -974 -1056 0
-1010 -1067 -1056 0
-1010 -1072 -1056 0
-1010 -1077 -1056 0
-1010 -1068 -1056 0
-1010 -1073 -1056 0
-1010 -1078 -1056 0
-1010 -1069 -1056 0
-1010 -1074 -1056 0
-1010 -1079 -1056 0
-1010 900 907 914 901 908 915 959 966 973 960 967 974 1067 1072 1077 1068 1073 1078 1069 1074 1079 1056 0
-1016 -907 -1056 0
-1016 -914 -1056 0
-1016 -908 -1056 0
-1016 -915 -1056 0
-1016 -966 -1056 0
-1016 -973 -1056 0
-1016 -967 -1056 0
-1016 -974 -1056 0
-1016 -1072 -1056 0
-1016 -1077 -1056 0
-1016 -1073 -1056 0
-1016 -1078 -1056 0
-1016 -1074 -1056 0
-1016 -1079 -1056 0
-1016 907 914 908 915 966 973 967 974 1072 1077 1073 1078 1074 1079 1056 0
-1022 -914 -1056 0
-1022 -915 -1056 0
-1022 -973 -1056 0
-1022 -974 -1056 0
-1022 -1077 -1056 0
-1022 -1078 -1056 0
-1022 -1079 -1056 0
-1022 914 915 973 974 1077 1078 1079 1056 0
-1028 1056 0
-1011 -901 -1056 0
-1011 -908 -1056 0
-1011 -915 -1056 0
-1011 -902 -1056 0
-1011 -909 -1056 0
-1011 -916 -1056 0
-1011 -960 -1056 0
-1011 -967 -1056 0
-1011 -974 -1056 0
-1011 -961 -1056 0
-1011 -968 -1056 0
-1011 -975 -1056 0
-1011 -1067 -1056 0
-1011 -1072 -1056 0
-1011 -1077 -1056 0
-1011 -1068 -1056 0
-1011 -1073 -1056 0
-1011 -1078 -1056 0
-1011 -1069 -1056 0
-1011 -1074 -1056 0
-1011 -1079 -1056 0
-1011 -1070 -1056 0
-1011 -1075 -1056 0
-1011 -1080 -1056 0
-1011 901 908 915 902 909 916 960 967 974 961 968 975 1067 1072 1077 1068 1073 1078 1069 1074 1079 1070 1075 1080 1056 0
-1017 -908 -1056 0
-1017 -915 -1056 0
-1017 -909 -1056 0
-1017 -916 -1056 0
-1017 -967 -1056 0
-1017 -974 -1056 0
-1017 -968 -1056 0
-1017 -975 -1056 0
-1017 -1072 -1056 0
-1017 -1077 -1056 0
-1017 -1073 -1056 0
-1017 -1078 -1056 0
-1017 -1074 -1056 0
-1017 -1079 -1056 0
-1017 -1075 -1056 0
-1017 -1080 -1056 0
-1017 908 915 909 916 967 974 968 975 1072 1077 1073 1078 1074 1079 1075 1080 1056 0
-1023 -915 -1056 0
-1023 -916 -1056 0
-1023 -974 -1056 0
-1023 -975 -1056 0
-1023 -1077 -1056 0
-1023 -1078 -1056 0
-1023 -1079 -1056 0
-1023 -1080 -1056 0
-1023 915 916 974 975 1077 1078 1079 1080 1056 0
-1029 1056 0
-1012 -902 -1056 0
-1012 -909 -1056 0
-1012 -916 -1056 0
-1012 -903 -1056 0
-1012 -910 -1056 0
-1012 -917 -1056 0
-1012 -961 -1056 0
-1012 -968 -1056 0
-1012 -975 -1056 0
-1012 -962 -1056 0
-1012 -969 -1056 0
-1012 -976 -1056 0
-1012 -1068 -1056 0
-1012 -1073 -1056 0
-1012 -1078 -1056 0
-1012 -1069 -1056 0
-1012 -1074 -1056 0
-1012 -1079 -1056 0
-1012 -1070 -1056 0
-1012 -1075 -1056 0
-1012 -1080 -1056 0
-1012 902 909 916 903 910 917 961 968 975 962 969 976 1068 1073 1078 1069 1074 1079 1070 1075 1080 1056 0
-1018 -909 -1056 0
-1018 -916 -1056 0
-1018 -910 -1056 0
-1018 -917 -1056 0
-1018 -968 -1056 0
-1018 -975 -1056 0
-1018 -969 -1056 0
-1018 -976 -1056 0
-1018 -1073 -1056 0
-1018 -1078 -1056 0
-1018 -1074 -1056 0
-1018 -1079 -1056 0
-1018 -1075 -1056 0
-1018 -1080 -1056 0
-1018 909 916 910 917 968 975 969 976 1073 1078 1074 1079 1075 1080 1056 0
-1024 -916 -1056 0
-1024 -917 -1056 0
-1024 -975 -1056 0
-1024 -976 -1056 0
-1024 -1078 -1056 0
-1024 -1079 -1056 0
-1024 -1080 -1056 0
-1024 916 917 975 976 1078 1079 1080 1056 0
-1030 1056 0
-1013 -903 -1056 0
-1013 -910 -1056 0
-1013 -917 -1056 0
-1013 -904 -1056 0
-1013 -911 -1056 0
-1013 -918 -1056 0
-1013 -962 -1056 0
-1013 -969 -1056 0
-1013 -976 -1056 0
-1013 -963 -1056 0
-1013 -970 -1056 0
-1013 -977 -1056 0
-1013 -1069 -1056 0
-1013 -1074 -1056 0
-1013 -1079 -1056 0
-1013 -1070 -1056 0
-1013 -1075 -1056 0
-1013 -1080 -1056 0
-1013 903 910 917 904 911 918 962 969 976 963 970 977 1069 1074 1079 1070 1075 1080 1056 0
-1019 -910 -1056 0
-1019 -917 -1056 0
-1019 -911 -1056 0
-1019 -918 -1056 0
-1019 -969 -1056 0
-1019 -976 -1056 0
-1019 -970 -1056 0
-1019 -977 -1056 0
-1019 -1074 -1056 0
-1019 -1079 -1056 0
-1019 -1075 -1056 0
-1019 -1080 -1056 0
-1019 910 917 911 918 969 976 970 977 1074 1079 1075 1080 1056 0
-1025 -917 -1056 0
-1025 -918 -1056 0
-1025 -976 -1056 0
-1025 -977 -1056 0
-1025 -1079 -1056 0
-1025 -1080 -1056 0
-1025 917 918 976 977 1079 1080 1056 0
-1031 1056 0
-1062 -899 -1105 0
-1062 -906 -1105 0
-1062 -913 -1105 0
-1062 -900 -1105 0
-1062 -907 -1105 0
-1062 -914 -1105 0
-1062 -901 -1105 0
-1062 -908 -1105 0
-1062 -915 -1105 0
-1062 -958 -1105 0
-1062 -965 -1105 0
-1062 -972 -1105 0
-1062 -959 -1105 0
-1062 -966 -1105 0
-1062 -973 -1105 0
-1062 -960 -1105 0
-1062 -967 -1105 0
-1062 -974 -1105 0
-1062 -1015 -1105 0
-1062 -1021 -1105 0
-1062 -1027 -1105 0
-1062 -1016 -1105 0
-1062 -1022 -1105 0
-1062 -1028 -1105 0
-1062 -1017 -1105 0
-1062 -1023 -1105 0
-1062 -1029 -1105 0
-1062 899 906 913 900 907 914 901 908 915 958 965 972 959 966 973 960 967 974 1015 1021 1027 1016 1022 1028 1017 1023 1029 1105 0
-1067 -906 -1105 0
-1067 -913 -1105 0
-1067 -907 -1105 0
-1067 -914 -1105 0
-1067 -908 -1105 0
-1067 -915 -1105 0
-1067 -965 -1105 0
-1067 -972 -1105 0
-1067 -966 -1105 0
-1067 -973 -1105 0
-1067 -967 -1105 0
-1067 -974 -1105 0
-1067 -1021 -1105 0
-1067 -1027 -1105 0
-1067 -1022 -1105 0
-1067 -1028 -1105 0
-1067 -1023 -1105 0
-1067 -1029 -1105 0
-1067 906 913 907 914 908 915 965 972 966 973 967 974 1021 1027 1022 1028 1023 1029 1105 0
-1072 -913 -1105 0
-1072 -914 -1105 0
-1072 -915 -1105 0
-1072 -972 -1105 0
-1072 -973 -1105 0
-1072 -974 -1105 0
-1072 -1027 -1105 0
-1072 -1028 -1105 0
-1072 -1029 -1105 0
-1072 913 914 915 972 973 974 1027 1028 1029 1105 0
-1077 1105 0
-1063 -900 -1105 0
-1063 -907 -1105 0
-1063 -914 -1105 0
-1063 -901 -1105 0
-1063 -908 -1105 0
-1063 -915 -1105 0
-1063 -902 -1105 0
-1063 -909 -1105 0
-1063 -916 -1105 0
-1063 -959 -1105 0
-1063 -966 -1105 0
-1063 -973 -1105 0
-1063 -960 -1105 0
-1063 -967 -1105 0
-1063 -974 -1105 0
-1063 -961 -1105 0
-1063 -968 -1105 0
-1063 -975 -1105 0
-1063 -1015 -1105 0
-1063 -1021 -1105 0
-1063 -1027 -1105 0
-1063 -1016 -1105 0
-1063 -1022 -1105 0
-1063 -1028 -1105 0
-1063 -1017 -1105 0
-1063 -1023 -1105 0
-1063 -1029 -1105 0
-1063 -1018 -1105 0
-1063 -1024 -1105 0
-1063 -1030 -1105 0
-1063 900 907 914 901 908 915 902 909 916 959 966 973 960 967 974 961 968 975 1015 1021 1027 1016 1022 1028 1017 1023 1029 1018 1024 1030 1105 0
-1068 -907 -1105 0
-1068 -914 -1105 0
-1068 -908 -1105 0
-1068 -915 -1105 0
-1068 -909 -1105 0
-1068 -916 -1105 0
-1068 -966 -1105 0
-1068 -973 -1105 0
-1068 -967 -1105 0
-1068 -974 -1105 0
-1068 -968 -1105 0
-1068 -975 -1105 0
-1068 -1021 -1105 0
-1068 -1027 -1105 0
-1068 -1022 -1105 0
-1068 -1028 -1105 0
-1068 -1023 -1105 0
-1068 -1029 -1105 0
-1068 -1024 -1105 0
-1068 -1030 -1105 0
-1068 907 914 908 915 909 916 966 973 967 974 968 975 1021 1027 1022 1028 1023 1029 1024 1030 1105 0
-1073 -914 -1105 0
-1073 -915 -1105 0
-1073 -916 -1105 0
-1073 -973 -1105 0
-1073 -974 -1105 0
-1073 -975 -1105 0
-1073 -1027 -1105 0
-1073 -1028 -1105 0
-1073 -1029 -1105 0
-1073 -1030 -1105 0
-1073 914 915 916 973 974 975 1027 1028 1029 1030 1105 0
-1078 1105 0
-1064 -901 -1105 0
-1064 -908 -1105 0
-1064 -915 -1105 0
-1064 -902 -1105 0
-1064 -909 -1105 0
-1064 -916 -1105 0
-1064 -903 -1105 0
-1064 -910 -1105 0
-1064 -917 -1105 0
-1064 -960 -1105 0
-1064 -967 -1105 0
-1064 -974 -1105 0
-1064 -961 -1105 0
-1064 -968 -1105 0
-1064 -975 -1105 0
-1064 -962 -1105 0
-1064 -969 -1105 0
-1064 -976 -1105 0
-1064 -1016 -1105 0
-1064 -1022 -1105 0
-1064 -1028 -1105 0
-1064 -1017 -1105 0
-1064 -1023 -1105 0
-1064 -1029 -1105 0
-1064 -1018 -1105 0
-1064 -1024 -1105 0
-1064 -1030 -1105 0
-1064 -1019 -1105 0
-1064 -1025 -1105 0
-1064 -1031 -1105 0
-1064 901 908 915 902 909 916 903 910 917 960 967 974 961 968 975 962 969 976 1016 1022 1028 1017 1023 1029 1018 1024 1030 1019 1025 1031 1105 0
-1069 -908 -1105 0
-1069 -915 -1105 0
-1069 -909 -1105 0
-1069 -916 -1105 0
-1069 -910 -1105 0
-1069 -917 -1105 0
-1069 -967 -1105 0
-1069 -974 -1105 0
-1069 -968 -1105 0
-1069 -975 -1105 0
-1069 -969 -1105 0
-1069 -976 -1105 0
-1069 -1022 -1105 0
-1069 -1028 -1105 0
-1069 -1023 -1105 0
-1069 -1029 -1105 0
-1069 -1024 -1105 0
-1069 -1030 -1105 0
-1069 -1025 -1105 0
-1069 -1031 -1105 0
-1069 908 915 909 916 910 917 967 974 968 975 969 976 1022 1028 1023 1029 1024 1030 1025 1031 1105 0
-1074 -915 -1105 0
-1074 -916 -1105 0
-1074 -917 -1105 0
-1074 -974 -1105 0
-1074 -975 -1105 0
-1074 -976 -1105 0
-1074 -1028 -1105 0
-1074 -1029 -1105 0
-1074 -1030 -1105 0
-1074 -1031 -1105 0
-1074 915 916 917 974 975 976 1028 1029 1030 1031 1105 0
-1079 1105 0
-1065 -902 -1105 0
-1065 -909 -1105 0
-1065 -916 -1105 0
-1065 -903 -1105 0
-1065 -910 -1105 0
-1065 -917 -1105 0
-1065 -904 -1105 0
-1065 -911 -1105 0
-1065 -918 -1105 0
-1065 -961 -1105 0
-1065 -968 -1105 0
-1065 -975 -1105 0
-1065 -962 -1105 0
-1065 -969 -1105 0
-1065 -976 -1105 0
-1065 -963 -1105 0
-1065 -970 -1105 0
-1065 -977 -1105 0
-1065 -1017 -1105 0
-1065 -1023 -1105 0
-1065 -1029 -1105 0
-1065 -1018 -1105 0
-1065 -1024 -1105 0
-1065 -1030 -1105 0
-1065 -1019 -1105 0
-1065 -1025 -1105 0
-1065 -1031 -1105 0
-1065 902 909 916 903 910 917 904 911 918 961 968 975 962 969 976 963 970 977 1017 1023 1029 1018 1024 1030 1019 1025 1031 1105 0
-1070 -909 -1105 0
-1070 -916 -1105 0
-1070 -910 -1105 0
-1070 -917 -1105 0
-1070 -911 -1105 0
-1070 -918 -1105 0
-1070 -968 -1105 0
-1070 -975 -1105 0
-1070 -969 -1105 0
-1070 -976 -1105 0
-1070 -970 -1105 0
-1070 -977 -1105 0
-1070 -1023 -1105 0
-1070 -1029 -1105 0
-1070 -1024 -1105 0
-1070 -1030 -1105 0
-1070 -1025 -1105 0
-1070 -1031 -1105 0
-1070 909 916 910 917 911 918 968 975 969 976 970 977 1023 1029 1024 1030 1025 1031 1105 0
-1075 -916 -1105 0
-1075 -917 -1105 0
-1075 -918 -1105 0
-1075 -975 -1105 0
-1075 -976 -1105 0
-1075 -977 -1105 0
-1075 -1029 -1105 0
-1075 -1030 -1105 0
-1075 -1031 -1105 0
-1075 916 917 918 975 976 977 1029 1030 1031 1105 0
-1080 1105 0
119 0
124 0
4 0
7 0
65 0
66 0
176 0
182 0
1003 0
1008 0
885 0
898 0
1059 0
1061 0
949 0
950 0
-1106 59 0
-1106 -8 0
-1106 -67 0
-1106 -125 0
-1106 -178 0
-1106 222 0
-1106 228 0
-1107 59 0
-1107 -9 0
-1107 -68 0
-1107 -125 0
-1107 -126 0
-1107 -178 0
-1107 -179 0
-1107 223 0
-1107 228 0
-1108 59 0
-1108 -10 0
-1108 -69 0
-1108 -126 0
-1108 -127 0
-1108 -178 0
-1108 -179 0
-1108 -180 0
-1108 224 0
-1108 228 0
-1109 59 0
-1109 -11 0
-1109 -70 0
-1109 -127 0
-1109 -128 0
-1109 -179 0
-1109 -180 0
-1109 -181 0
-1109 225 0
-1109 228 0
-1110 59 0
-1110 -12 0
-1110 -71 0
-1110 -128 0
-1110 -129 0
-1110 -180 0
-1110 -181 0
-1110 226 0
-1110 228 0
-1111 59 0
-1111 -13 0
-1111 -72 0
-1111 -129 0
-1111 -181 0
-1111 227 0
-1111 228 0
-1112 59 0
-1112 60 0
-1112 -66 235 0
-1112 -66 -131 0
-1112 -66 -183 0
-1112 -15 0
-1112 -73 242 0
-1112 -73 -137 0
-1112 -73 -188 0
-1112 -22 0
-1112 -80 249 0
-1112 -80 -143 0
-1112 -80 -193 0
-1112 -29 0
-1112 222 0
-1113 59 0
-1113 61 0
-1113 -66 235 0
-1113 -66 -131 0
-1113 -66 -132 0
-1113 -66 -183 0
-1113 -66 -184 0
-1113 -16 0
-1113 -73 242 0
-1113 -73 -137 0
-1113 -73 -138 0
-1113 -73 -188 0
-1113 -73 -189 0
-1113 -23 0
-1113 -80 249 0
-1113 -80 -143 0
-1113 -80 -144 0
-1113 -80 -193 0
-1113 -80 -194 0
-1113 -30 0
-1113 223 0
-1114 59 0
-1114 62 0
-1114 -66 235 0
-1114 -66 -132 0
-1114 -66 -133 0
-1114 -66 -183 0
-1114 -66 -184 0
-1114 -66 -185 0
-1114 -17 0
-1114 -73 242 0
-1114 -73 -138 0
-1114 -73 -139 0
-1114 -73 -188 0
-1114 -73 -189 0
-1114 -73 -190 0
-1114 -24 0
-1114 -80 249 0
-1114 -80 -144 0
-1114 -80 -145 0
-1114 -80 -193 0
-1114 -80 -194 0
-1114 -80 -195 0
-1114 -31 0
-1114 224 0
-1115 59 0
-1115 63 0
-1115 -66 235 0
-1115 -66 -133 0
-1115 -66 -134 0
-1115 -66 -184 0
-1115 -66 -185 0
-1115 -66 -186 0
-1115 -18 0
-1115 -73 242 0
-1115 -73 -139 0
-1115 -73 -140 0
-1115 -73 -189 0
-1115 -73 -190 0
-1115 -73 -191 0
-1115 -25 0
-1115 -80 249 0
-1115 -80 -145 0
-1115 -80 -146 0
-1115 -80 -194 0
-1115 -80 -195 0
-1115 -80 -196 0
-1115 -32 0
-1115 225 0
-1116 59 0
-1116 64 0
-1116 -66 235 0
-1116 -66 -134 0
-1116 -66 -135 0
-1116 -66 -185 0
-1116 -66 -186 0
-1116 -19 0
-1116 -73 242 0
-1116 -73 -140 0
-1116 -73 -141 0
-1116 -73 -190 0
-1116 -73 -191 0
-1116 -26 0
-1116 -80 249 0
-1116 -80 -146 0
-1116 -80 -147 0
-1116 -80 -195 0
-1116 -80 -196 0
-1116 -33 0
-1116 226 0
-1117 59 0
-1117 65 0
-1117 -66 235 0
-1117 -66 -135 0
-1117 -66 -186 0
-1117 -20 0
-1117 -73 242 0
-1117 -73 -141 0
-1117 -73 -191 0
-1117 -27 0
-1117 -80 249 0
-1117 -80 -147 0
-1117 -80 -196 0
-1117 -34 0
-1117 227 0
-1118 59 0
-1118 119 0
-1118 -124 235 0
-1118 -124 -74 0
-1118 -124 -183 0
-1118 -15 0
-1118 -130 242 0
-1118 -130 -81 0
-1118 -130 -188 0
-1118 -22 0
-1118 -136 249 0
-1118 -136 -88 0
-1118 -136 -193 0
-1118 -29 0
-1118 222 0
-1119 59 0
-1119 119 120 0
-1119 -124 235 0
-1119 -124 -75 0
-1119 -124 -183 0
-1119 -124 -184 0
-1119 -16 0
-1119 -130 242 0
-1119 -130 -82 0
-1119 -130 -188 0
-1119 -130 -189 0
-1119 -23 0
-1119 -136 249 0
-1119 -136 -89 0
-1119 -136 -193 0
-1119 -136 -194 0
-1119 -30 0
-1119 223 0
-1120 59 0
-1120 120 121 0
-1120 -124 235 0
-1120 -124 -76 0
-1120 -124 -183 0
-1120 -124 -184 0
-1120 -124 -185 0
-1120 -17 0
-1120 -130 242 0
-1120 -130 -83 0
-1120 -130 -188 0
-1120 -130 -189 0
-1120 -130 -190 0
-1120 -24 0
-1120 -136 249 0
-1120 -136 -90 0
-1120 -136 -193 0
-1120 -136 -194 0
-1120 -136 -195 0
-1120 -31 0
-1120 224 0
-1121 59 0
-1121 121 122 0
-1121 -124 235 0
-1121 -124 -77 0
-1121 -124 -184 0
-1121 -124 -185 0
-1121 -124 -186 0
-1121 -18 0
-1121 -130 242 0
-1121 -130 -84 0
-1121 -130 -189 0
-1121 -130 -190 0
-1121 -130 -191 0
-1121 -25 0
-1121 -136 249 0
-1121 -136 -91 0
-1121 -136 -194 0
-1121 -136 -195 0
-1121 -136 -196 0
-1121 -32 0
-1121 225 0
-1122 59 0
-1122 122 123 0
-1122 -124 235 0
-1122 -124 -78 0
-1122 -124 -185 0
-1122 -124 -186 0
-1122 -19 0
-1122 -130 242 0
-1122 -130 -85 0
-1122 -130 -190 0
-1122 -130 -191 0
-1122 -26 0
-1122 -136 249 0
-1122 -136 -92 0
-1122 -136 -195 0
-1122 -136 -196 0
-1122 -33 0
-1122 226 0
-1123 59 0
-1123 123 0
-1123 -124 235 0
-1123 -124 -79 0
-1123 -124 -186 0
-1123 -20 0
-1123 -130 242 0
-1123 -130 -86 0
-1123 -130 -191 0
-1123 -27 0
-1123 -136 249 0
-1123 -136 -93 0
-1123 -136 -196 0
-1123 -34 0
-1123 227 0
-1124 59 0
-1124 173 0
-1124 -177 235 0
-1124 -177 -74 0
-1124 -177 -131 0
-1124 -15 0
-1124 -182 242 0
-1124 -182 -81 0
-1124 -182 -137 0
-1124 -22 0
-1124 -187 249 0
-1124 -187 -88 0
-1124 -187 -143 0
-1124 -29 0
-1124 222 0
-1125 59 0
-1125 173 174 0
-1125 -177 235 0
-1125 -177 -75 0
-1125 -177 -131 0
-1125 -177 -132 0
-1125 -16 0
-1125 -182 242 0
-1125 -182 -82 0
-1125 -182 -137 0
-1125 -182 -138 0
-1125 -23 0
-1125 -187 249 0
-1125 -187 -89 0
-1125 -187 -143 0
-1125 -187 -144 0
-1125 -30 0
-1125 223 0
-1126 59 0
-1126 173 174 175 0
-1126 -177 235 0
-1126 -177 -76 0
-1126 -177 -132 0
-1126 -177 -133 0
-1126 -17 0
-1126 -182 242 0
-1126 -182 -83 0
-1126 -182 -138 0
-1126 -182 -139 0
-1126 -24 0
-1126 -187 249 0
-1126 -187 -90 0
-1126 -187 -144 0
-1126 -187 -145 0
-1126 -31 0
-1126 224 0
-1127 59 0
-1127 174 175 176 0
-1127 -177 235 0
-1127 -177 -77 0
-1127 -177 -133 0
-1127 -177 -134 0
-1127 -18 0
-1127 -182 242 0
-1127 -182 -84 0
-1127 -182 -139 0
-1127 -182 -140 0
-1127 -25 0
-1127 -187 249 0
-1127 -187 -91 0
-1127 -187 -145 0
-1127 -187 -146 0
-1127 -32 0
-1127 225 0
-1128 59 0
-1128 175 176 0
-1128 -177 235 0
-1128 -177 -78 0
-1128 -177 -134 0
-1128 -177 -135 0
-1128 -19 0
-1128 -182 242 0
-1128 -182 -85 0
-1128 -182 -140 0
-1128 -182 -141 0
-1128 -26 0
-1128 -187 249 0
-1128 -187 -92 0
-1128 -187 -146 0
-1128 -187 -147 0
-1128 -33 0
-1128 226 0
-1129 59 0
-1129 176 0
-1129 -177 235 0
-1129 -177 -79 0
-1129 -177 -135 0
-1129 -20 0
-1129 -182 242 0
-1129 -182 -86 0
-1129 -182 -141 0
-1129 -27 0
-1129 -187 249 0
-1129 -187 -93 0
-1129 -187 -147 0
-1129 -34 0
-1129 227 0
-1130 118 0
-1130 -67 0
-1130 -8 0
-1130 -125 0
-1130 -178 0
-1130 281 0
-1130 287 0
-1131 118 0
-1131 -68 0
-1131 -9 0
-1131 -125 0
-1131 -126 0
-1131 -178 0
-1131 -179 0
-1131 282 0
-1131 287 0
-1132 118 0
-1132 -69 0
-1132 -10 0
-1132 -126 0
-1132 -127 0
-1132 -178 0
-1132 -179 0
-1132 -180 0
-1132 283 0
-1132 287 0
-1133 118 0
-1133 -70 0
-1133 -11 0
-1133 -127 0
-1133 -128 0
-1133 -179 0
-1133 -180 0
-1133 -181 0
-1133 284 0
-1133 287 0
-1134 118 0
-1134 -71 0
-1134 -12 0
-1134 -128 0
-1134 -129 0
-1134 -180 0
-1134 -181 0
-1134 285 0
-1134 287 0
-1135 118 0
-1135 -72 0
-1135 -13 0
-1135 -129 0
-1135 -181 0
-1135 286 0
-1135 287 0
-1136 118 0
-1136 1 0
-1136 -7 294 0
-1136 -7 -131 0
-1136 -7 -183 0
-1136 -74 0
-1136 -14 301 0
-1136 -14 -137 0
-1136 -14 -188 0
-1136 -81 0
-1136 -21 308 0
-1136 -21 -143 0
-1136 -21 -193 0
-1136 -88 0
-1136 281 0
-1137 118 0
-1137 2 0
-1137 -7 294 0
-1137 -7 -131 0
-1137 -7 -132 0
-1137 -7 -183 0
-1137 -7 -184 0
-1137 -75 0
-1137 -14 301 0
-1137 -14 -137 0
-1137 -14 -138 0
-1137 -14 -188 0
-1137 -14 -189 0
-1137 -82 0
-1137 -21 308 0
-1137 -21 -143 0
-1137 -21 -144 0
-1137 -21 -193 0
-1137 -21 -194 0
-1137 -89 0
-1137 282 0
-1138 118 0
-1138 3 0
-1138 -7 294 0
-1138 -7 -132 0
-1138 -7 -133 0
-1138 -7 -183 0
-1138 -7 -184 0
-1138 -7 -185 0
-1138 -76 0
-1138 -14 301 0
-1138 -14 -138 0
-1138 -14 -139 0
-1138 -14 -188 0
-1138 -14 -189 0
-1138 -14 -190 0
-1138 -83 0
-1138 -21 308 0
-1138 -21 -144 0
-1138 -21 -145 0
-1138 -21 -193 0
-1138 -21 -194 0
-1138 -21 -195 0
-1138 -90 0
-1138 283 0
-1139 118 0
-1139 4 0
-1139 -7 294 0
-1139 -7 -133 0
-1139 -7 -134 0
-1139 -7 -184 0
-1139 -7 -185 0
-1139 -7 -186 0
-1139 -77 0
-1139 -14 301 0
-1139 -14 -139 0
-1139 -14 -140 0
-1139 -14 -189 0
-1139 -14 -190 0
-1139 -14 -191 0
-1139 -84 0
-1139 -21 308 0
-1139 -21 -145 0
-1139 -21 -146 0
-1139 -21 -194 0
-1139 -21 -195 0
-1139 -21 -196 0
-1139 -91 0
-1139 284 0
-1140 118 0
-1140 5 0
-1140 -7 294 0
-1140 -7 -134 0
-1140 -7 -135 0
-1140 -7 -185 0
-1140 -7 -186 0
-1140 -78 0
-1140 -14 301 0
-1140 -14 -140 0
-1140 -14 -141 0
-1140 -14 -190 0
-1140 -14 -191 0
-1140 -85 0
-1140 -21 308 0
-1140 -21 -146 0
-1140 -21 -147 0
-1140 -21 -195 0
-1140 -21 -196 0
-1140 -92 0
-1140 285 0
-1141 118 0
-1141 6 0
-1141 -7 294 0
-1141 -7 -135 0
-1141 -7 -186 0
-1141 -79 0
-1141 -14 301 0
-1141 -14 -141 0
-1141 -14 -191 0
-1141 -86 0
-1141 -21 308 0
-1141 -21 -147 0
-1141 -21 -196 0
-1141 -93 0
-1141 286 0
-1142 118 0
-1142 119 0
-1142 -124 294 0
-1142 -124 -15 0
-1142 -124 -183 0
-1142 -74 0
-1142 -130 301 0
-1142 -130 -22 0
-1142 -130 -188 0
-1142 -81 0
-1142 -136 308 0
-1142 -136 -29 0
-1142 -136 -193 0
-1142 -88 0
-1142 281 0
-1143 118 0
-1143 119 120 0
-1143 -124 294 0
-1143 -124 -16 0
-1143 -124 -183 0
-1143 -124 -184 0
-1143 -75 0
-1143 -130 301 0
-1143 -130 -23 0
-1143 -130 -188 0
-1143 -130 -189 0
-1143 -82 0
-1143 -136 308 0
-1143 -136 -30 0
-1143 -136 -193 0
-1143 -136 -194 0
-1143 -89 0
-1143 282 0
-1144 118 0
-1144 120 121 0
-1144 -124 294 0
-1144 -124 -17 0
-1144 -124 -183 0
-1144 -124 -184 0
-1144 -124 -185 0
-1144 -76 0
-1144 -130 301 0
-1144 -130 -24 0
-1144 -130 -188 0
-1144 -130 -189 0
-1144 -130 -190 0
-1144 -83 0
-1144 -136 308 0
-1144 -136 -31 0
-1144 -136 -193 0
-1144 -136 -194 0
-1144 -136 -195 0
-1144 -90 0
-1144 283 0
-1145 118 0
-1145 121 122 0
-1145 -124 294 0
-1145 -124 -18 0
-1145 -124 -184 0
-1145 -124 -185 0
-1145 -124 -186 0
-1145 -77 0
-1145 -130 301 0
-1145 -130 -25 0
-1145 -130 -189 0
-1145 -130 -190 0
-1145 -130 -191 0
-1145 -84 0
-1145 -136 308 0
-1145 -136 -32 0
-1145 -136 -194 0
-1145 -136 -195 0
-1145 -136 -196 0
-1145 -91 0
-1145 284 0
-1146 118 0
-1146 122 123 0
-1146 -124 294 0
-1146 -124 -19 0
-1146 -124 -185 0
-1146 -124 -186 0
-1146 -78 0
-1146 -130 301 0
-1146 -130 -26 0
-1146 -130 -190 0
-1146 -130 -191 0
-1146 -85 0
-1146 -136 308 0
-1146 -136 -33 0
-1146 -136 -195 0
-1146 -136 -196 0
-1146 -92 0
-1146 285 0
-1147 118 0
-1147 123 0
-1147 -124 294 0
-1147 -124 -20 0
-1147 -124 -186 0
-1147 -79 0
-1147 -130 301 0
-1147 -130 -27 0
-1147 -130 -191 0
-1147 -86 0
-1147 -136 308 0
-1147 -136 -34 0
-1147 -136 -196 0
-1147 -93 0
-1147 286 0
-1148 118 0
-1148 173 0
-1148 -177 294 0
-1148 -177 -15 0
-1148 -177 -131 0
-1148 -74 0
-1148 -182 301 0
-1148 -182 -22 0
-1148 -182 -137 0
-1148 -81 0
-1148 -187 308 0
-1148 -187 -29 0
-1148 -187 -143 0
-1148 -88 0
-1148 281 0
-1149 118 0
-1149 173 174 0
-1149 -177 294 0
-1149 -177 -16 0
-1149 -177 -131 0
-1149 -177 -132 0
-1149 -75 0
-1149 -182 301 0
-1149 -182 -23 0
-1149 -182 -137 0
-1149 -182 -138 0
-1149 -82 0
-1149 -187 308 0
-1149 -187 -30 0
-1149 -187 -143 0
-1149 -187 -144 0
-1149 -89 0
-1149 282 0
-1150 118 0
-1150 173 174 175 0
-1150 -177 294 0
-1150 -177 -17 0
-1150 -177 -132 0
-1150 -177 -133 0
-1150 -76 0
-1150 -182 301 0
-1150 -182 -24 0
-1150 -182 -138 0
-1150 -182 -139 0
-1150 -83 0
-1150 -187 308 0
-1150 -187 -31 0
-1150 -187 -144 0
-1150 -187 -145 0
-1150 -90 0
-1150 283 0
-1151 118 0
-1151 174 175 176 0
-1151 -177 294 0
-1151 -177 -18 0
-1151 -177 -133 0
-1151 -177 -134 0
-1151 -77 0
-1151 -182 301 0
-1151 -182 -25 0
-1151 -182 -139 0
-1151 -182 -140 0
-1151 -84 0
-1151 -187 308 0
-1151 -187 -32 0
-1151 -187 -145 0
-1151 -187 -146 0
-1151 -91 0
-1151 284 0
-1152 118 0
-1152 175 176 0
-1152 -177 294 0
-1152 -177 -19 0
-1152 -177 -134 0
-1152 -177 -135 0
-1152 -78 0
-1152 -182 301 0
-1152 -182 -26 0
-1152 -182 -140 0
-1152 -182 -141 0
-1152 -85 0
-1152 -187 308 0
-1152 -187 -33 0
-1152 -187 -146 0
-1152 -187 -147 0
-1152 -92 0
-1152 285 0
-1153 118 0
-1153 176 0
-1153 -177 294 0
-1153 -177 -20 0
-1153 -177 -135 0
-1153 -79 0
-1153 -182 301 0
-1153 -182 -27 0
-1153 -182 -141 0
-1153 -86 0
-1153 -187 308 0
-1153 -187 -34 0
-1153 -187 -147 0
-1153 -93 0
-1153 286 0
-1154 172 0
-1154 -125 0
-1154 -8 0
-1154 -9 0
-1154 -67 0
-1154 -68 0
-1154 -178 0
-1154 -179 0
-1154 340 0
-1154 345 0
-1155 172 0
-1155 -126 0
-1155 -9 0
-1155 -10 0
-1155 -68 0
-1155 -69 0
-1155 -178 0
-1155 -179 0
-1155 -180 0
-1155 341 0
-1155 345 0
-1156 172 0
-1156 -127 0
-1156 -10 0
-1156 -11 0
-1156 -69 0
-1156 -70 0
-1156 -178 0
-1156 -179 0
-1156 -180 0
-1156 -181 0
-1156 342 0
-1156 345 0
-1157 172 0
-1157 -128 0
-1157 -11 0
-1157 -12 0
-1157 -70 0
-1157 -71 0
-1157 -179 0
-1157 -180 0
-1157 -181 0
-1157 343 0
-1157 345 0
-1158 172 0
-1158 -129 0
-1158 -12 0
-1158 -13 0
-1158 -71 0
-1158 -72 0
-1158 -180 0
-1158 -181 0
-1158 344 0
-1158 345 0
-1159 172 0
-1159 1 2 0
-1159 -7 351 0
-1159 -7 -74 0
-1159 -7 -75 0
-1159 -7 -183 0
-1159 -7 -184 0
-1159 -131 0
-1159 -14 357 0
-1159 -14 -81 0
-1159 -14 -82 0
-1159 -14 -188 0
-1159 -14 -189 0
-1159 -137 0
-1159 -21 363 0
-1159 -21 -88 0
-1159 -21 -89 0
-1159 -21 -193 0
-1159 -21 -194 0
-1159 -143 0
-1159 340 0
-1160 172 0
-1160 2 3 0
-1160 -7 351 0
-1160 -7 -75 0
-1160 -7 -76 0
-1160 -7 -183 0
-1160 -7 -184 0
-1160 -7 -185 0
-1160 -132 0
-1160 -14 357 0
-1160 -14 -82 0
-1160 -14 -83 0
-1160 -14 -188 0
-1160 -14 -189 0
-1160 -14 -190 0
-1160 -138 0
-1160 -21 363 0
-1160 -21 -89 0
-1160 -21 -90 0
-1160 -21 -193 0
-1160 -21 -194 0
-1160 -21 -195 0
-1160 -144 0
-1160 341 0
-1161 172 0
-1161 3 4 0
-1161 -7 351 0
-1161 -7 -76 0
-1161 -7 -77 0
-1161 -7 -183 0
-1161 -7 -184 0
-1161 -7 -185 0
-1161 -7 -186 0
-1161 -133 0
-1161 -14 357 0
-1161 -14 -83 0
-1161 -14 -84 0
-1161 -14 -188 0
-1161 -14 -189 0
-1161 -14 -190 0
-1161 -14 -191 0
-1161 -139 0
-1161 -21 363 0
-1161 -21 -90 0
-1161 -21 -91 0
-1161 -21 -193 0
-1161 -21 -194 0
-1161 -21 -195 0
-1161 -21 -196 0
-1161 -145 0
-1161 342 0
-1162 172 0
-1162 4 5 0
-1162 -7 351 0
-1162 -7 -77 0
-1162 -7 -78 0
-1162 -7 -184 0
-1162 -7 -185 0
-1162 -7 -186 0
-1162 -134 0
-1162 -14 357 0
-1162 -14 -84 0
-1162 -14 -85 0
-1162 -14 -189 0
-1162 -14 -190 0
-1162 -14 -191 0
-1162 -140 0
-1162 -21 363 0
-1162 -21 -91 0
-1162 -21 -92 0
-1162 -21 -194 0
-1162 -21 -195 0
-1162 -21 -196 0
-1162 -146 0
-1162 343 0
-1163 172 0
-1163 5 6 0
-1163 -7 351 0
-1163 -7 -78 0
-1163 -7 -79 0
-1163 -7 -185 0
-1163 -7 -186 0
-1163 -135 0
-1163 -14 357 0
-1163 -14 -85 0
-1163 -14 -86 0
-1163 -14 -190 0
-1163 -14 -191 0
-1163 -141 0
-1163 -21 363 0
-1163 -21 -92 0
-1163 -21 -93 0
-1163 -21 -195 0
-1163 -21 -196 0
-1163 -147 0
-1163 344 0
-1164 172 0
-1164 60 61 0
-1164 -66 351 0
-1164 -66 -15 0
-1164 -66 -16 0
-1164 -66 -183 0
-1164 -66 -184 0
-1164 -131 0
-1164 -73 357 0
-1164 -73 -22 0
-1164 -73 -23 0
-1164 -73 -188 0
-1164 -73 -189 0
-1164 -137 0
-1164 -80 363 0
-1164 -80 -29 0
-1164 -80 -30 0
-1164 -80 -193 0
-1164 -80 -194 0
-1164 -143 0
-1164 340 0
-1165 172 0
-1165 61 62 0
-1165 -66 351 0
-1165 -66 -16 0
-1165 -66 -17 0
-1165 -66 -183 0
-1165 -66 -184 0
-1165 -66 -185 0
-1165 -132 0
-1165 -73 357 0
-1165 -73 -23 0
-1165 -73 -24 0
-1165 -73 -188 0
-1165 -73 -189 0
-1165 -73 -190 0
-1165 -138 0
-1165 -80 363 0
-1165 -80 -30 0
-1165 -80 -31 0
-1165 -80 -193 0
-1165 -80 -194 0
-1165 -80 -195 0
-1165 -144 0
-1165 341 0
-1166 172 0
-1166 62 63 0
-1166 -66 351 0
-1166 -66 -17 0
-1166 -66 -18 0
-1166 -66 -183 0
-1166 -66 -184 0
-1166 -66 -185 0
-1166 -66 -186 0
-1166 -133 0
-1166 -73 357 0
-1166 -73 -24 0
-1166 -73 -25 0
-1166 -73 -188 0
-1166 -73 -189 0
-1166 -73 -190 0
-1166 -73 -191 0
-1166 -139 0
-1166 -80 363 0
-1166 -80 -31 0
-1166 -80 -32 0
-1166 -80 -193 0
-1166 -80 -194 0
-1166 -80 -195 0
-1166 -80 -196 0
-1166 -145 0
-1166 342 0
-1167 172 0
-1167 63 64 0
-1167 -66 351 0
-1167 -66 -18 0
-1167 -66 -19 0
-1167 -66 -184 0
-1167 -66 -185 0
-1167 -66 -186 0
-1167 -134 0
-1167 -73 357 0
-1167 -73 -25 0
-1167 -73 -26 0
-1167 -73 -189 0
-1167 -73 -190 0
-1167 -73 -191 0
-1167 -140 0
-1167 -80 363 0
-1167 -80 -32 0
-1167 -80 -33 0
-1167 -80 -194 0
-1167 -80 -195 0
-1167 -80 -196 0
-1167 -146 0
-1167 343 0
-1168 172 0
-1168 64 65 0
-1168 -66 351 0
-1168 -66 -19 0
-1168 -66 -20 0
-1168 -66 -185 0
-1168 -66 -186 0
-1168 -135 0
-1168 -73 357 0
-1168 -73 -26 0
-1168 -73 -27 0
-1168 -73 -190 0
-1168 -73 -191 0
-1168 -141 0
-1168 -80 363 0
-1168 -80 -33 0
-1168 -80 -34 0
-1168 -80 -195 0
-1168 -80 -196 0
-1168 -147 0
-1168 344 0
-1169 172 0
-1169 173 174 0
-1169 -177 351 0
-1169 -177 -15 0
-1169 -177 -16 0
-1169 -177 -74 0
-1169 -177 -75 0
-1169 -131 0
-1169 -182 357 0
-1169 -182 -22 0
-1169 -182 -23 0
-1169 -182 -81 0
-1169 -182 -82 0
-1169 -137 0
-1169 -187 363 0
-1169 -187 -29 0
-1169 -187 -30 0
-1169 -187 -88 0
-1169 -187 -89 0
-1169 -143 0
-1169 340 0
-1170 172 0
-1170 173 174 175 0
-1170 -177 351 0
-1170 -177 -16 0
-1170 -177 -17 0
-1170 -177 -75 0
-1170 -177 -76 0
-1170 -132 0
-1170 -182 357 0
-1170 -182 -23 0
-1170 -182 -24 0
-1170 -182 -82 0
-1170 -182 -83 0
-1170 -138 0
-1170 -187 363 0
-1170 -187 -30 0
-1170 -187 -31 0
-1170 -187 -89 0
-1170 -187 -90 0
-1170 -144 0
-1170 341 0
-1171 172 0
-1171 173 174 175 176 0
-1171 -177 351 0
-1171 -177 -17 0
-1171 -177 -18 0
-1171 -177 -76 0
-1171 -177 -77 0
-1171 -133 0
-1171 -182 357 0
-1171 -182 -24 0
-1171 -182 -25 0
-1171 -182 -83 0
-1171 -182 -84 0
-1171 -139 0
-1171 -187 363 0
-1171 -187 -31 0
-1171 -187 -32 0
-1171 -187 -90 0
-1171 -187 -91 0
-1171 -145 0
-1171 342 0
-1172 172 0
-1172 174 175 176 0
-1172 -177 351 0
-1172 -177 -18 0
-1172 -177 -19 0
-1172 -177 -77 0
-1172 -177 -78 0
-1172 -134 0
-1172 -182 357 0
-1172 -182 -25 0
-1172 -182 -26 0
-1172 -182 -84 0
-1172 -182 -85 0
-1172 -140 0
-1172 -187 363 0
-1172 -187 -32 0
-1172 -187 -33 0
-1172 -187 -91 0
-1172 -187 -92 0
-1172 -146 0
-1172 343 0
-1173 172 0
-1173 175 176 0
-1173 -177 351 0
-1173 -177 -19 0
-1173 -177 -20 0
-1173 -177 -78 0
-1173 -177 -79 0
-1173 -135 0
-1173 -182 357 0
-1173 -182 -26 0
-1173 -182 -27 0
-1173 -182 -85 0
-1173 -182 -86 0
-1173 -141 0
-1173 -187 363 0
-1173 -187 -33 0
-1173 -187 -34 0
-1173 -187 -92 0
-1173 -187 -93 0
-1173 -147 0
-1173 344 0
-1174 221 0
-1174 -178 0
-1174 -8 0
-1174 -9 0
-1174 -10 0
-1174 -67 0
-1174 -68 0
-1174 -69 0
-1174 -125 0
-1174 -126 0
-1174 -127 0
-1174 394 0
-1174 398 0
-1175 221 0
-1175 -179 0
-1175 -9 0
-1175 -10 0
-1175 -11 0
-1175 -68 0
-1175 -69 0
-1175 -70 0
-1175 -125 0
-1175 -126 0
-1175 -127 0
-1175 -128 0
-1175 395 0
-1175 398 0
-1176 221 0
-1176 -180 0
-1176 -10 0
-1176 -11 0
-1176 -12 0
-1176 -69 0
-1176 -70 0
-1176 -71 0
-1176 -126 0
-1176 -127 0
-1176 -128 0
-1176 -129 0
-1176 396 0
-1176 398 0
-1177 221 0
-1177 -181 0
-1177 -11 0
-1177 -12 0
-1177 -13 0
-1177 -70 0
-1177 -71 0
-1177 -72 0
-1177 -127 0
-1177 -128 0
-1177 -129 0
-1177 397 0
-1177 398 0
-1178 221 0
-1178 1 2 3 0
-1178 -7 403 0
-1178 -7 -74 0
-1178 -7 -75 0
-1178 -7 -76 0
-1178 -7 -131 0
-1178 -7 -132 0
-1178 -7 -133 0
-1178 -183 0
-1178 -14 408 0
-1178 -14 -81 0
-1178 -14 -82 0
-1178 -14 -83 0
-1178 -14 -137 0
-1178 -14 -138 0
-1178 -14 -139 0
-1178 -188 0
-1178 -21 413 0
-1178 -21 -88 0
-1178 -21 -89 0
-1178 -21 -90 0
-1178 -21 -143 0
-1178 -21 -144 0
-1178 -21 -145 0
-1178 -193 0
-1178 394 0
-1179 221 0
-1179 2 3 4 0
-1179 -7 403 0
-1179 -7 -75 0
-1179 -7 -76 0
-1179 -7 -77 0
-1179 -7 -131 0
-1179 -7 -132 0
-1179 -7 -133 0
-1179 -7 -134 0
-1179 -184 0
-1179 -14 408 0
-1179 -14 -82 0
-1179 -14 -83 0
-1179 -14 -84 0
-1179 -14 -137 0
-1179 -14 -138 0
-1179 -14 -139 0
-1179 -14 -140 0
-1179 -189 0
-1179 -21 413 0
-1179 -21 -89 0
-1179 -21 -90 0
-1179 -21 -91 0
-1179 -21 -143 0
-1179 -21 -144 0
-1179 -21 -145 0
-1179 -21 -146 0
-1179 -194 0
-1179 395 0
-1180 221 0
-1180 3 4 5 0
-1180 -7 403 0
-1180 -7 -76 0
-1180 -7 -77 0
-1180 -7 -78 0
-1180 -7 -132 0
-1180 -7 -133 0
-1180 -7 -134 0
-1180 -7 -135 0
-1180 -185 0
-1180 -14 408 0
-1180 -14 -83 0
-1180 -14 -84 0
-1180 -14 -85 0
-1180 -14 -138 0
-1180 -14 -139 0
-1180 -14 -140 0
-1180 -14 -141 0
-1180 -190 0
-1180 -21 413 0
-1180 -21 -90 0
-1180 -21 -91 0
-1180 -21 -92 0
-1180 -21 -144 0
-1180 -21 -145 0
-1180 -21 -146 0
-1180 -21 -147 0
-1180 -195 0
-1180 396 0
-1181 221 0
-1181 4 5 6 0
-1181 -7 403 0
-1181 -7 -77 0
-1181 -7 -78 0
-1181 -7 -79 0
-1181 -7 -133 0
-1181 -7 -134 0
-1181 -7 -135 0
-1181 -186 0
-1181 -14 408 0
-1181 -14 -84 0
-1181 -14 -85 0
-1181 -14 -86 0
-1181 -14 -139 0
-1181 -14 -140 0
-1181 -14 -141 0
-1181 -191 0
-1181 -21 413 0
-1181 -21 -91 0
-1181 -21 -92 0
-1181 -21 -93 0
-1181 -21 -145 0
-1181 -21 -146 0
-1181 -21 -147 0
-1181 -196 0
-1181 397 0
-1182 221 0
-1182 60 61 62 0
-1182 -66 403 0
-1182 -66 -15 0
-1182 -66 -16 0
-1182 -66 -17 0
-1182 -66 -131 0
-1182 -66 -132 0
-1182 -66 -133 0
-1182 -183 0
-1182 -73 408 0
-1182 -73 -22 0
-1182 -73 -23 0
-1182 -73 -24 0
-1182 -73 -137 0
-1182 -73 -138 0
-1182 -73 -139 0
-1182 -188 0
-1182 -80 413 0
-1182 -80 -29 0
-1182 -80 -30 0
-1182 -80 -31 0
-1182 -80 -143 0
-1182 -80 -144 0
-1182 -80 -145 0
-1182 -193 0
-1182 394 0
-1183 221 0
-1183 61 62 63 0
-1183 -66 403 0
-1183 -66 -16 0
-1183 -66 -17 0
-1183 -66 -18 0
-1183 -66 -131 0
-1183 -66 -132 0
-1183 -66 -133 0
-1183 -66 -134 0
-1183 -184 0
-1183 -73 408 0
-1183 -73 -23 0
-1183 -73 -24 0
-1183 -73 -25 0
-1183 -73 -137 0
-1183 -73 -138 0
-1183 -73 -139 0
-1183 -73 -140 0
-1183 -189 0
-1183 -80 413 0
-1183 -80 -30 0
-1183 -80 -31 0
-1183 -80 -32 0
-1183 -80 -143 0
-1183 -80 -144 0
-1183 -80 -145 0
-1183 -80 -146 0
-1183 -194 0
-1183 395 0
-1184 221 0
-1184 62 63 64 0
-1184 -66 403 0
-1184 -66 -17 0
-1184 -66 -18 0
-1184 -66 -19 0
-1184 -66 -132 0
-1184 -66 -133 0
-1184 -66 -134 0
-1184 -66 -135 0
-1184 -185 0
-1184 -73 408 0
-1184 -73 -24 0
-1184 -73 -25 0
-1184 -73 -26 0
-1184 -73 -138 0
-1184 -73 -139 0
-1184 -73 -140 0
-1184 -73 -141 0
-1184 -190 0
-1184 -80 413 0
-1184 -80 -31 0
-1184 -80 -32 0
-1184 -80 -33 0
-1184 -80 -144 0
-1184 -80 -145 0
-1184 -80 -146 0
-1184 -80 -147 0
-1184 -195 0
-1184 396 0
-1185 221 0
-1185 63 64 65 0
-1185 -66 403 0
-1185 -66 -18 0
-1185 -66 -19 0
-1185 -66 -20 0
-1185 -66 -133 0
-1185 -66 -134 0
-1185 -66 -135 0
-1185 -186 0
-1185 -73 408 0
-1185 -73 -25 0
-1185 -73 -26 0
-1185 -73 -27 0
-1185 -73 -139 0
-1185 -73 -140 0
-1185 -73 -141 0
-1185 -191 0
-1185 -80 413 0
-1185 -80 -32 0
-1185 -80 -33 0
-1185 -80 -34 0
-1185 -80 -145 0
-1185 -80 -146 0
-1185 -80 -147 0
-1185 -196 0
-1185 397 0
-1186 221 0
-1186 119 120 121 0
-1186 -124 403 0
-1186 -124 -15 0
-1186 -124 -16 0
-1186 -124 -17 0
-1186 -124 -74 0
-1186 -124 -75 0
-1186 -124 -76 0
-1186 -183 0
-1186 -130 408 0
-1186 -130 -22 0
-1186 -130 -23 0
-1186 -130 -24 0
-1186 -130 -81 0
-1186 -130 -82 0
-1186 -130 -83 0
-1186 -188 0
-1186 -136 413 0
-1186 -136 -29 0
-1186 -136 -30 0
-1186 -136 -31 0
-1186 -136 -88 0
-1186 -136 -89 0
-1186 -136 -90 0
-1186 -193 0
-1186 394 0
-1187 221 0
-1187 119 120 121 122 0
-1187 -124 403 0
-1187 -124 -16 0
-1187 -124 -17 0
-1187 -124 -18 0
-1187 -124 -75 0
-1187 -124 -76 0
-1187 -124 -77 0
-1187 -184 0
-1187 -130 408 0
-1187 -130 -23 0
-1187 -130 -24 0
-1187 -130 -25 0
-1187 -130 -82 0
-1187 -130 -83 0
-1187 -130 -84 0
-1187 -189 0
-1187 -136 413 0
-1187 -136 -30 0
-1187 -136 -31 0
-1187 -136 -32 0
-1187 -136 -89 0
-1187 -136 -90 0
-1187 -136 -91 0
-1187 -194 0
-1187 395 0
-1188 221 0
-1188 120 121 122 123 0
-1188 -124 403 0
-1188 -124 -17 0
-1188 -124 -18 0
-1188 -124 -19 0
-1188 -124 -76 0
-1188 -124 -77 0
-1188 -124 -78 0
-1188 -185 0
-1188 -130 408 0
-1188 -130 -24 0
-1188 -130 -25 0
-1188 -130 -26 0
-1188 -130 -83 0
-1188 -130 -84 0
-1188 -130 -85 0
-1188 -190 0
-1188 -136 413 0
-1188 -136 -31 0
-1188 -136 -32 0
-1188 -136 -33 0
-1188 -136 -90 0
-1188 -136 -91 0
-1188 -136 -92 0
-1188 -195 0
-1188 396 0
-1189 221 0
-1189 121 122 123 0
-1189 -124 403 0
-1189 -124 -18 0
-1189 -124 -19 0
-1189 -124 -20 0
-1189 -124 -77 0
-1189 -124 -78 0
-1189 -124 -79 0
-1189 -186 0
-1189 -130 408 0
-1189 -130 -25 0
-1189 -130 -26 0
-1189 -130 -27 0
-1189 -130 -84 0
-1189 -130 -85 0
-1189 -130 -86 0
-1189 -191 0
-1189 -136 413 0
-1189 -136 -32 0
-1189 -136 -33 0
-1189 -136 -34 0
-1189 -136 -91 0
-1189 -136 -92 0
-1189 -136 -93 0
-1189 -196 0
-1189 397 0
-1190 280 0
-1190 -229 0
-1190 -288 0
-1190 -346 0
-1190 -399 0
-1190 443 0
-1190 449 0
-1191 280 0
-1191 -230 0
-1191 -289 0
-1191 -346 0
-1191 -347 0
-1191 -399 0
-1191 -400 0
-1191 444 0
-1191 449 0
-1192 280 0
-1192 -231 0
-1192 -290 0
-1192 -347 0
-1192 -348 0
-1192 -399 0
-1192 -400 0
-1192 -401 0
-1192 445 0
-1192 449 0
-1193 280 0
-1193 -232 0
-1193 -291 0
-1193 -348 0
-1193 -349 0
-1193 -400 0
-1193 -401 0
-1193 -402 0
-1193 446 0
-1193 449 0
-1194 280 0
-1194 -233 0
-1194 -292 0
-1194 -349 0
-1194 -350 0
-1194 -401 0
-1194 -402 0
-1194 447 0
-1194 449 0
-1195 280 0
-1195 -234 0
-1195 -293 0
-1195 -350 0
-1195 -402 0
-1195 448 0
-1195 449 0
-1196 280 0
-1196 281 0
-1196 -287 456 0
-1196 -287 -352 0
-1196 -287 -404 0
-1196 -236 0
-1196 -294 463 0
-1196 -294 -358 0
-1196 -294 -409 0
-1196 -243 0
-1196 -301 470 0
-1196 -301 -364 0
-1196 -301 -414 0
-1196 -250 0
-1196 443 0
-1197 280 0
-1197 282 0
-1197 -287 456 0
-1197 -287 -352 0
-1197 -287 -353 0
-1197 -287 -404 0
-1197 -287 -405 0
-1197 -237 0
-1197 -294 463 0
-1197 -294 -358 0
-1197 -294 -359 0
-1197 -294 -409 0
-1197 -294 -410 0
-1197 -244 0
-1197 -301 470 0
-1197 -301 -364 0
-1197 -301 -365 0
-1197 -301 -414 0
-1197 -301 -415 0
-1197 -251 0
-1197 444 0
-1198 280 0
-1198 283 0
-1198 -287 456 0
-1198 -287 -353 0
-1198 -287 -354 0
-1198 -287 -404 0
-1198 -287 -405 0
-1198 -287 -406 0
-1198 -238 0
-1198 -294 463 0
-1198 -294 -359 0
-1198 -294 -360 0
-1198 -294 -409 0
-1198 -294 -410 0
-1198 -294 -411 0
-1198 -245 0
-1198 -301 470 0
-1198 -301 -365 0
-1198 -301 -366 0
-1198 -301 -414 0
-1198 -301 -415 0
-1198 -301 -416 0
-1198 -252 0
-1198 445 0
-1199 280 0
-1199 284 0
-1199 -287 456 0
-1199 -287 -354 0
-1199 -287 -355 0
-1199 -287 -405 0
-1199 -287 -406 0
-1199 -287 -407 0
-1199 -239 0
-1199 -294 463 0
-1199 -294 -360 0
-1199 -294 -361 0
-1199 -294 -410 0
-1199 -294 -411 0
-1199 -294 -412 0
-1199 -246 0
-1199 -301 470 0
-1199 -301 -366 0
-1199 -301 -367 0
-1199 -301 -415 0
-1199 -301 -416 0
-1199 -301 -417 0
-1199 -253 0
-1199 446 0
-1200 280 0
-1200 285 0
-1200 -287 456 0
-1200 -287 -355 0
-1200 -287 -356 0
-1200 -287 -406 0
-1200 -287 -407 0
-1200 -240 0
-1200 -294 463 0
-1200 -294 -361 0
-1200 -294 -362 0
-1200 -294 -411 0
-1200 -294 -412 0
-1200 -247 0
-1200 -301 470 0
-1200 -301 -367 0
-1200 -301 -368 0
-1200 -301 -416 0
-1200 -301 -417 0
-1200 -254 0
-1200 447 0
-1201 280 0
-1201 286 0
-1201 -287 456 0
-1201 -287 -356 0
-1201 -287 -407 0
-1201 -241 0
-1201 -294 463 0
-1201 -294 -362 0
-1201 -294 -412 0
-1201 -248 0
-1201 -301 470 0
-1201 -301 -368 0
-1201 -301 -417 0
-1201 -255 0
-1201 448 0
-1202 280 0
-1202 340 0
-1202 -345 456 0
-1202 -345 -295 0
-1202 -345 -404 0
-1202 -236 0
-1202 -351 463 0
-1202 -351 -302 0
-1202 -351 -409 0
-1202 -243 0
-1202 -357 470 0
-1202 -357 -309 0
-1202 -357 -414 0
-1202 -250 0
-1202 443 0
-1203 280 0
-1203 340 341 0
-1203 -345 456 0
-1203 -345 -296 0
-1203 -345 -404 0
-1203 -345 -405 0
-1203 -237 0
-1203 -351 463 0
-1203 -351 -303 0
-1203 -351 -409 0
-1203 -351 -410 0
-1203 -244 0
-1203 -357 470 0
-1203 -357 -310 0
-1203 -357 -414 0
-1203 -357 -415 0
-1203 -251 0
-1203 444 0
-1204 280 0
-1204 341 342 0
-1204 -345 456 0
-1204 -345 -297 0
-1204 -345 -404 0
-1204 -345 -405 0
-1204 -345 -406 0
-1204 -238 0
-1204 -351 463 0
-1204 -351 -304 0
-1204 -351 -409 0
-1204 -351 -410 0
-1204 -351 -411 0
-1204 -245 0
-1204 -357 470 0
-1204 -357 -311 0
-1204 -357 -414 0
-1204 -357 -415 0
-1204 -357 -416 0
-1204 -252 0
-1204 445 0
-1205 280 0
-1205 342 343 0
-1205 -345 456 0
-1205 -345 -298 0
-1205 -345 -405 0
-1205 -345 -406 0
-1205 -345 -407 0
-1205 -239 0
-1205 -351 463 0
-1205 -351 -305 0
-1205 -351 -410 0
-1205 -351 -411 0
-1205 -351 -412 0
-1205 -246 0
-1205 -357 470 0
-1205 -357 -312 0
-1205 -357 -415 0
-1205 -357 -416 0
-1205 -357 -417 0
-1205 -253 0
-1205 446 0
-1206 280 0
-1206 343 344 0
-1206 -345 456 0
-1206 -345 -299 0
-1206 -345 -406 0
-1206 -345 -407 0
-1206 -240 0
-1206 -351 463 0
-1206 -351 -306 0
-1206 -351 -411 0
-1206 -351 -412 0
-1206 -247 0
-1206 -357 470 0
-1206 -357 -313 0
-1206 -357 -416 0
-1206 -357 -417 0
-1206 -254 0
-1206 447 0
-1207 280 0
-1207 344 0
-1207 -345 456 0
-1207 -345 -300 0
-1207 -345 -407 0
-1207 -241 0
-1207 -351 463 0
-1207 -351 -307 0
-1207 -351 -412 0
-1207 -248 0
-1207 -357 470 0
-1207 -357 -314 0
-1207 -357 -417 0
-1207 -255 0
-1207 448 0
-1208 280 0
-1208 394 0
-1208 -398 456 0
-1208 -398 -295 0
-1208 -398 -352 0
-1208 -236 0
-1208 -403 463 0
-1208 -403 -302 0
-1208 -403 -358 0
-1208 -243 0
-1208 -408 470 0
-1208 -408 -309 0
-1208 -408 -364 0
-1208 -250 0
-1208 443 0
-1209 280 0
-1209 394 395 0
-1209 -398 456 0
-1209 -398 -296 0
-1209 -398 -352 0
-1209 -398 -353 0
-1209 -237 0
-1209 -403 463 0
-1209 -403 -303 0
-1209 -403 -358 0
-1209 -403 -359 0
-1209 -244 0
-1209 -408 470 0
-1209 -408 -310 0
-1209 -408 -364 0
-1209 -408 -365 0
-1209 -251 0
-1209 444 0
-1210 280 0
-1210 394 395 396 0
-1210 -398 456 0
-1210 -398 -297 0
-1210 -398 -353 0
-1210 -398 -354 0
-1210 -238 0
-1210 -403 463 0
-1210 -403 -304 0
-1210 -403 -359 0
-1210 -403 -360 0
-1210 -245 0
-1210 -408 470 0
-1210 -408 -311 0
-1210 -408 -365 0
-1210 -408 -366 0
-1210 -252 0
-1210 445 0
-1211 280 0
-1211 395 396 397 0
-1211 -398 456 0
-1211 -398 -298 0
-1211 -398 -354 0
-1211 -398 -355 0
-1211 -239 0
-1211 -403 463 0
-1211 -403 -305 0
-1211 -403 -360 0
-1211 -403 -361 0
-1211 -246 0
-1211 -408 470 0
-1211 -408 -312 0
-1211 -408 -366 0
-1211 -408 -367 0
-1211 -253 0
-1211 446 0
-1212 280 0
-1212 396 397 0
-1212 -398 456 0
-1212 -398 -299 0
-1212 -398 -355 0
-1212 -398 -356 0
-1212 -240 0
-1212 -403 463 0
-1212 -403 -306 0
-1212 -403 -361 0
-1212 -403 -362 0
-1212 -247 0
-1212 -408 470 0
-1212 -408 -313 0
-1212 -408 -367 0
-1212 -408 -368 0
-1212 -254 0
-1212 447 0
-1213 280 0
-1213 397 0
-1213 -398 456 0
-1213 -398 -300 0
-1213 -398 -356 0
-1213 -241 0
-1213 -403 463 0
-1213 -403 -307 0
-1213 -403 -362 0
-1213 -248 0
-1213 -408 470 0
-1213 -408 -314 0
-1213 -408 -368 0
-1213 -255 0
-1213 448 0
-1214 339 0
-1214 -288 0
-1214 -229 0
-1214 -346 0
-1214 -399 0
-1214 502 0
-1214 508 0
-1215 339 0
-1215 -289 0
-1215 -230 0
-1215 -346 0
-1215 -347 0
-1215 -399 0
-1215 -400 0
-1215 503 0
-1215 508 0
-1216 339 0
-1216 -290 0
-1216 -231 0
-1216 -347 0
-1216 -348 0
-1216 -399 0
-1216 -400 0
-1216 -401 0
-1216 504 0
-1216 508 0
-1217 339 0
-1217 -291 0
-1217 -232 0
-1217 -348 0
-1217 -349 0
-1217 -400 0
-1217 -401 0
-1217 -402 0
-1217 505 0
-1217 508 0
-1218 339 0
-1218 -292 0
-1218 -233 0
-1218 -349 0
-1218 -350 0
-1218 -401 0
-1218 -402 0
-1218 506 0
-1218 508 0
-1219 339 0
-1219 -293 0
-1219 -234 0
-1219 -350 0
-1219 -402 0
-1219 507 0
-1219 508 0
-1220 339 0
-1220 222 0
-1220 -228 515 0
-1220 -228 -352 0
-1220 -228 -404 0
-1220 -295 0
-1220 -235 522 0
-1220 -235 -358 0
-1220 -235 -409 0
-1220 -302 0
-1220 -242 529 0
-1220 -242 -364 0
-1220 -242 -414 0
-1220 -309 0
-1220 502 0
-1221 339 0
-1221 223 0
-1221 -228 515 0
-1221 -228 -352 0
-1221 -228 -353 0
-1221 -228 -404 0
-1221 -228 -405 0
-1221 -296 0
-1221 -235 522 0
-1221 -235 -358 0
-1221 -235 -359 0
-1221 -235 -409 0
-1221 -235 -410 0
-1221 -303 0
-1221 -242 529 0
-1221 -242 -364 0
-1221 -242 -365 0
-1221 -242 -414 0
-1221 -242 -415 0
-1221 -310 0
-1221 503 0
-1222 339 0
-1222 224 0
-1222 -228 515 0
-1222 -228 -353 0
-1222 -228 -354 0
-1222 -228 -404 0
-1222 -228 -405 0
-1222 -228 -406 0
-1222 -297 0
-1222 -235 522 0
-1222 -235 -359 0
-1222 -235 -360 0
-1222 -235 -409 0
-1222 -235 -410 0
-1222 -235 -411 0
-1222 -304 0
-1222 -242 529 0
-1222 -242 -365 0
-1222 -242 -366 0
-1222 -242 -414 0
-1222 -242 -415 0
-1222 -242 -416 0
-1222 -311 0
-1222 504 0
-1223 339 0
-1223 225 0
-1223 -228 515 0
-1223 -228 -354 0
-1223 -228 -355 0
-1223 -228 -405 0
-1223 -228 -406 0
-1223 -228 -407 0
-1223 -298 0
-1223 -235 522 0
-1223 -235 -360 0
-1223 -235 -361 0
-1223 -235 -410 0
-1223 -235 -411 0
-1223 -235 -412 0
-1223 -305 0
-1223 -242 529 0
-1223 -242 -366 0
-1223 -242 -367 0
-1223 -242 -415 0
-1223 -242 -416 0
-1223 -242 -417 0
-1223 -312 0
-1223 505 0
-1224 339 0
-1224 226 0
-1224 -228 515 0
-1224 -228 -355 0
-1224 -228 -356 0
-1224 -228 -406 0
-1224 -228 -407 0
-1224 -299 0
-1224 -235 522 0
-1224 -235 -361 0
-1224 -235 -362 0
-1224 -235 -411 0
-1224 -235 -412 0
-1224 -306 0
-1224 -242 529 0
-1224 -242 -367 0
-1224 -242 -368 0
-1224 -242 -416 0
-1224 -242 -417 0
-1224 -313 0
-1224 506 0
-1225 339 0
-1225 227 0
-1225 -228 515 0
-1225 -228 -356 0
-1225 -228 -407 0
-1225 -300 0
-1225 -235 522 0
-1225 -235 -362 0
-1225 -235 -412 0
-1225 -307 0
-1225 -242 529 0
-1225 -242 -368 0
-1225 -242 -417 0
-1225 -314 0
-1225 507 0
-1226 339 0
-1226 340 0
-1226 -345 515 0
-1226 -345 -236 0
-1226 -345 -404 0
-1226 -295 0
-1226 -351 522 0
-1226 -351 -243 0
-1226 -351 -409 0
-1226 -302 0
-1226 -357 529 0
-1226 -357 -250 0
-1226 -357 -414 0
-1226 -309 0
-1226 502 0
-1227 339 0
-1227 340 341 0
-1227 -345 515 0
-1227 -345 -237 0
-1227 -345 -404 0
-1227 -345 -405 0
-1227 -296 0
-1227 -351 522 0
-1227 -351 -244 0
-1227 -351 -409 0
-1227 -351 -410 0
-1227 -303 0
-1227 -357 529 0
-1227 -357 -251 0
-1227 -357 -414 0
-1227 -357 -415 0
-1227 -310 0
-1227 503 0
-1228 339 0
-1228 341 342 0
-1228 -345 515 0
-1228 -345 -238 0
-1228 -345 -404 0
-1228 -345 -405 0
-1228 -345 -406 0
-1228 -297 0
-1228 -351 522 0
-1228 -351 -245 0
-1228 -351 -409 0
-1228 -351 -410 0
-1228 -351 -411 0
-1228 -304 0
-1228 -357 529 0
-1228 -357 -252 0
-1228 -357 -414 0
-1228 -357 -415 0
-1228 -357 -416 0
-1228 -311 0
-1228 504 0
-1229 339 0
-1229 342 343 0
-1229 -345 515 0
-1229 -345 -239 0
-1229 -345 -405 0
-1229 -345 -406 0
-1229 -345 -407 0
-1229 -298 0
-1229 -351 522 0
-1229 -351 -246 0
-1229 -351 -410 0
-1229 -351 -411 0
-1229 -351 -412 0
-1229 -305 0
-1229 -357 529 0
-1229 -357 -253 0
-1229 -357 -415 0
-1229 -357 -416 0
-1229 -357 -417 0
-1229 -312 0
-1229 505 0
-1230 339 0
-1230 343 344 0
-1230 -345 515 0
-1230 -345 -240 0
-1230 -345 -406 0
-1230 -345 -407 0
-1230 -299 0
-1230 -351 522 0
-1230 -351 -247 0
-1230 -351 -411 0
-1230 -351 -412 0
-1230 -306 0
-1230 -357 529 0
-1230 -357 -254 0
-1230 -357 -416 0
-1230 -357 -417 0
-1230 -313 0
-1230 506 0
-1231 339 0
-1231 344 0
-1231 -345 515 0
-1231 -345 -241 0
-1231 -345 -407 0
-1231 -300 0
-1231 -351 522 0
-1231 -351 -248 0
-1231 -351 -412 0
-1231 -307 0
-1231 -357 529 0
-1231 -357 -255 0
-1231 -357 -417 0
-1231 -314 0
-1231 507 0
-1232 339 0
-1232 394 0
-1232 -398 515 0
-1232 -398 -236 0
-1232 -398 -352 0
-1232 -295 0
-1232 -403 522 0
-1232 -403 -243 0
-1232 -403 -358 0
-1232 -302 0
-1232 -408 529 0
-1232 -408 -250 0
-1232 -408 -364 0
-1232 -309 0
-1232 502 0
-1233 339 0
-1233 394 395 0
-1233 -398 515 0
-1233 -398 -237 0
-1233 -398 -352 0
-1233 -398 -353 0
-1233 -296 0
-1233 -403 522 0
-1233 -403 -244 0
-1233 -403 -358 0
-1233 -403 -359 0
-1233 -303 0
-1233 -408 529 0
-1233 -408 -251 0
-1233 -408 -364 0
-1233 -408 -365 0
-1233 -310 0
-1233 503 0
-1234 339 0
-1234 394 395 396 0
-1234 -398 515 0
-1234 -398 -238 0
-1234 -398 -353 0
-1234 -398 -354 0
-1234 -297 0
-1234 -403 522 0
-1234 -403 -245 0
-1234 -403 -359 0
-1234 -403 -360 0
-1234 -304 0
-1234 -408 529 0
-1234 -408 -252 0
-1234 -408 -365 0
-1234 -408 -366 0
-1234 -311 0
-1234 504 0
-1235 339 0
-1235 395 396 397 0
-1235 -398 515 0
-1235 -398 -239 0
-1235 -398 -354 0
-1235 -398 -355 0
-1235 -298 0
-1235 -403 522 0
-1235 -403 -246 0
-1235 -403 -360 0
-1235 -403 -361 0
-1235 -305 0
-1235 -408 529 0
-1235 -408 -253 0
-1235 -408 -366 0
-1235 -408 -367 0
-1235 -312 0
-1235 505 0
-1236 339 0
-1236 396 397 0
-1236 -398 515 0
-1236 -398 -240 0
-1236 -398 -355 0
-1236 -398 -356 0
-1236 -299 0
-1236 -403 522 0
-1236 -403 -247 0
-1236 -403 -361 0
-1236 -403 -362 0
-1236 -306 0
-1236 -408 529 0
-1236 -408 -254 0
-1236 -408 -367 0
-1236 -408 -368 0
-1236 -313 0
-1236 506 0
-1237 339 0
-1237 397 0
-1237 -398 515 0
-1237 -398 -241 0
-1237 -398 -356 0
-1237 -300 0
-1237 -403 522 0
-1237 -403 -248 0
-1237 -403 -362 0
-1237 -307 0
-1237 -408 529 0
-1237 -408 -255 0
-1237 -408 -368 0
-1237 -314 0
-1237 507 0
-1238 393 0
-1238 -346 0
-1238 -229 0
-1238 -230 0
-1238 -288 0
-1238 -289 0
-1238 -399 0
-1238 -400 0
-1238 561 0
-1238 566 0
-1239 393 0
-1239 -347 0
-1239 -230 0
-1239 -231 0
-1239 -289 0
-1239 -290 0
-1239 -399 0
-1239 -400 0
-1239 -401 0
-1239 562 0
-1239 566 0
-1240 393 0
-1240 -348 0
-1240 -231 0
-1240 -232 0
-1240 -290 0
-1240 -291 0
-1240 -399 0
-1240 -400 0
-1240 -401 0
-1240 -402 0
-1240 563 0
-1240 566 0
-1241 393 0
-1241 -349 0
-1241 -232 0
-1241 -233 0
-1241 -291 0
-1241 -292 0
-1241 -400 0
-1241 -401 0
-1241 -402 0
-1241 564 0
-1241 566 0
-1242 393 0
-1242 -350 0
-1242 -233 0
-1242 -234 0
-1242 -292 0
-1242 -293 0
-1242 -401 0
-1242 -402 0
-1242 565 0
-1242 566 0
-1243 393 0
-1243 222 223 0
-1243 -228 572 0
-1243 -228 -295 0
-1243 -228 -296 0
-1243 -228 -404 0
-1243 -228 -405 0
-1243 -352 0
-1243 -235 578 0
-1243 -235 -302 0
-1243 -235 -303 0
-1243 -235 -409 0
-1243 -235 -410 0
-1243 -358 0
-1243 -242 584 0
-1243 -242 -309 0
-1243 -242 -310 0
-1243 -242 -414 0
-1243 -242 -415 0
-1243 -364 0
-1243 561 0
-1244 393 0
-1244 223 224 0
-1244 -228 572 0
-1244 -228 -296 0
-1244 -228 -297 0
-1244 -228 -404 0
-1244 -228 -405 0
-1244 -228 -406 0
-1244 -353 0
-1244 -235 578 0
-1244 -235 -303 0
-1244 -235 -304 0
-1244 -235 -409 0
-1244 -235 -410 0
-1244 -235 -411 0
-1244 -359 0
-1244 -242 584 0
-1244 -242 -310 0
-1244 -242 -311 0
-1244 -242 -414 0
-1244 -242 -415 0
-1244 -242 -416 0
-1244 -365 0
-1244 562 0
-1245 393 0
-1245 224 225 0
-1245 -228 572 0
-1245 -228 -297 0
-1245 -228 -298 0
-1245 -228 -404 0
-1245 -228 -405 0
-1245 -228 -406 0
-1245 -228 -407 0
-1245 -354 0
-1245 -235 578 0
-1245 -235 -304 0
-1245 -235 -305 0
-1245 -235 -409 0
-1245 -235 -410 0
-1245 -235 -411 0
-1245 -235 -412 0
-1245 -360 0
-1245 -242 584 0
-1245 -242 -311 0
-1245 -242 -312 0
-1245 -242 -414 0
-1245 -242 -415 0
-1245 -242 -416 0
-1245 -242 -417 0
-1245 -366 0
-1245 563 0
-1246 393 0
-1246 225 226 0
-1246 -228 572 0
-1246 -228 -298 0
-1246 -228 -299 0
-1246 -228 -405 0
-1246 -228 -406 0
-1246 -228 -407 0
-1246 -355 0
-1246 -235 578 0
-1246 -235 -305 0
-1246 -235 -306 0
-1246 -235 -410 0
-1246 -235 -411 0
-1246 -235 -412 0
-1246 -361 0
-1246 -242 584 0
-1246 -242 -312 0
-1246 -242 -313 0
-1246 -242 -415 0
-1246 -242 -416 0
-1246 -242 -417 0
-1246 -367 0
-1246 564 0
-1247 393 0
-1247 226 227 0
-1247 -228 572 0
-1247 -228 -299 0
-1247 -228 -300 0
-1247 -228 -406 0
-1247 -228 -407 0
-1247 -356 0
-1247 -235 578 0
-1247 -235 -306 0
-1247 -235 -307 0
-1247 -235 -411 0
-1247 -235 -412 0
-1247 -362 0
-1247 -242 584 0
-1247 -242 -313 0
-1247 -242 -314 0
-1247 -242 -416 0
-1247 -242 -417 0
-1247 -368 0
-1247 565 0
-1248 393 0
-1248 281 282 0
-1248 -287 572 0
-1248 -287 -236 0
-1248 -287 -237 0
-1248 -287 -404 0
-1248 -287 -405 0
-1248 -352 0
-1248 -294 578 0
-1248 -294 -243 0
-1248 -294 -244 0
-1248 -294 -409 0
-1248 -294 -410 0
-1248 -358 0
-1248 -301 584 0
-1248 -301 -250 0
-1248 -301 -251 0
-1248 -301 -414 0
-1248 -301 -415 0
-1248 -364 0
-1248 561 0
-1249 393 0
-1249 282 283 0
-1249 -287 572 0
-1249 -287 -237 0
-1249 -287 -238 0
-1249 -287 -404 0
-1249 -287 -405 0
-1249 -287 -406 0
-1249 -353 0
-1249 -294 578 0
-1249 -294 -244 0
-1249 -294 -245 0
-1249 -294 -409 0
-1249 -294 -410 0
-1249 -294 -411 0
-1249 -359 0
-1249 -301 584 0
-1249 -301 -251 0
-1249 -301 -252 0
-1249 -301 -414 0
-1249 -301 -415 0
-1249 -301 -416 0
-1249 -365 0
-1249 562 0
-1250 393 0
-1250 283 284 0
-1250 -287 572 0
-1250 -287 -238 0
-1250 -287 -239 0
-1250 -287 -404 0
-1250 -287 -405 0
-1250 -287 -406 0
-1250 -287 -407 0
-1250 -354 0
-1250 -294 578 0
-1250 -294 -245 0
-1250 -294 -246 0
-1250 -294 -409 0
-1250 -294 -410 0
-1250 -294 -411 0
-1250 -294 -412 0
-1250 -360 0
-1250 -301 584 0
-1250 -301 -252 0
-1250 -301 -253 0
-1250 -301 -414 0
-1250 -301 -415 0
-1250 -301 -416 0
-1250 -301 -417 0
-1250 -366 0
-1250 563 0
-1251 393 0
-1251 284 285 0
-1251 -287 572 0
-1251 -287 -239 0
-1251 -287 -240 0
-1251 -287 -405 0
-1251 -287 -406 0
-1251 -287 -407 0
-1251 -355 0
-1251 -294 578 0
-1251 -294 -246 0
-1251 -294 -247 0
-1251 -294 -410 0
-1251 -294 -411 0
-1251 -294 -412 0
-1251 -361 0
-1251 -301 584 0
-1251 -301 -253 0
-1251 -301 -254 0
-1251 -301 -415 0
-1251 -301 -416 0
-1251 -301 -417 0
-1251 -367 0
-1251 564 0
-1252 393 0
-1252 285 286 0
-1252 -287 572 0
-1252 -287 -240 0
-1252 -287 -241 0
-1252 -287 -406 0
-1252 -287 -407 0
-1252 -356 0
-1252 -294 578 0
-1252 -294 -247 0
-1252 -294 -248 0
-1252 -294 -411 0
-1252 -294 -412 0
-1252 -362 0
-1252 -301 584 0
-1252 -301 -254 0
-1252 -301 -255 0
-1252 -301 -416 0
-1252 -301 -417 0
-1252 -368 0
-1252 565 0
-1253 393 0
-1253 394 395 0
-1253 -398 572 0
-1253 -398 -236 0
-1253 -398 -237 0
-1253 -398 -295 0
-1253 -398 -296 0
-1253 -352 0
-1253 -403 578 0
-1253 -403 -243 0
-1253 -403 -244 0
-1253 -403 -302 0
-1253 -403 -303 0
-1253 -358 0
-1253 -408 584 0
-1253 -408 -250 0
-1253 -408 -251 0
-1253 -408 -309 0
-1253 -408 -310 0
-1253 -364 0
-1253 561 0
-1254 393 0
-1254 394 395 396 0
-1254 -398 572 0
-1254 -398 -237 0
-1254 -398 -238 0
-1254 -398 -296 0
-1254 -398 -297 0
-1254 -353 0
-1254 -403 578 0
-1254 -403 -244 0
-1254 -403 -245 0
-1254 -403 -303 0
-1254 -403 -304 0
-1254 -359 0
-1254 -408 584 0
-1254 -408 -251 0
-1254 -408 -252 0
-1254 -408 -310 0
-1254 -408 -311 0
-1254 -365 0
-1254 562 0
-1255 393 0
-1255 394 395 396 397 0
-1255 -398 572 0
-1255 -398 -238 0
-1255 -398 -239 0
-1255 -398 -297 0
-1255 -398 -298 0
-1255 -354 0
-1255 -403 578 0
-1255 -403 -245 0
-1255 -403 -246 0
-1255 -403 -304 0
-1255 -403 -305 0
-1255 -360 0
-1255 -408 584 0
-1255 -408 -252 0
-1255 -408 -253 0
-1255 -408 -311 0
-1255 -408 -312 0
-1255 -366 0
-1255 563 0
-1256 393 0
-1256 395 396 397 0
-1256 -398 572 0
-1256 -398 -239 0
-1256 -398 -240 0
-1256 -398 -298 0
-1256 -398 -299 0
-1256 -355 0
-1256 -403 578 0
-1256 -403 -246 0
-1256 -403 -247 0
-1256 -403 -305 0
-1256 -403 -306 0
-1256 -361 0
-1256 -408 584 0
-1256 -408 -253 0
-1256 -408 -254 0
-1256 -408 -312 0
-1256 -408 -313 0
-1256 -367 0
-1256 564 0
-1257 393 0
-1257 396 397 0
-1257 -398 572 0
-1257 -398 -240 0
-1257 -398 -241 0
-1257 -398 -299 0
-1257 -398 -300 0
-1257 -356 0
-1257 -403 578 0
-1257 -403 -247 0
-1257 -403 -248 0
-1257 -403 -306 0
-1257 -403 -307 0
-1257 -362 0
-1257 -408 584 0
-1257 -408 -254 0
-1257 -408 -255 0
-1257 -408 -313 0
-1257 -408 -314 0
-1257 -368 0
-1257 565 0
-1258 442 0
-1258 -399 0
-1258 -229 0
-1258 -230 0
-1258 -231 0
-1258 -288 0
-1258 -289 0
-1258 -290 0
-1258 -346 0
-1258 -347 0
-1258 -348 0
-1258 615 0
-1258 619 0
-1259 442 0
-1259 -400 0
-1259 -230 0
-1259 -231 0
-1259 -232 0
-1259 -289 0
-1259 -290 0
-1259 -291 0
-1259 -346 0
-1259 -347 0
-1259 -348 0
-1259 -349 0
-1259 616 0
-1259 619 0
-1260 442 0
-1260 -401 0
-1260 -231 0
-1260 -232 0
-1260 -233 0
-1260 -290 0
-1260 -291 0
-1260 -292 0
-1260 -347 0
-1260 -348 0
-1260 -349 0
-1260 -350 0
-1260 617 0
-1260 619 0
-1261 442 0
-1261 -402 0
-1261 -232 0
-1261 -233 0
-1261 -234 0
-1261 -291 0
-1261 -292 0
-1261 -293 0
-1261 -348 0
-1261 -349 0
-1261 -350 0
-1261 618 0
-1261 619 0
-1262 442 0
-1262 222 223 224 0
-1262 -228 624 0
-1262 -228 -295 0
-1262 -228 -296 0
-1262 -228 -297 0
-1262 -228 -352 0
-1262 -228 -353 0
-1262 -228 -354 0
-1262 -404 0
-1262 -235 629 0
-1262 -235 -302 0
-1262 -235 -303 0
-1262 -235 -304 0
-1262 -235 -358 0
-1262 -235 -359 0
-1262 -235 -360 0
-1262 -409 0
-1262 -242 634 0
-1262 -242 -309 0
-1262 -242 -310 0
-1262 -242 -311 0
-1262 -242 -364 0
-1262 -242 -365 0
-1262 -242 -366 0
-1262 -414 0
-1262 615 0
-1263 442 0
-1263 223 224 225 0
-1263 -228 624 0
-1263 -228 -296 0
-1263 -228 -297 0
-1263 -228 -298 0
-1263 -228 -352 0
-1263 -228 -353 0
-1263 -228 -354 0
-1263 -228 -355 0
-1263 -405 0
-1263 -235 629 0
-1263 -235 -303 0
-1263 -235 -304 0
-1263 -235 -305 0
-1263 -235 -358 0
-1263 -235 -359 0
-1263 -235 -360 0
-1263 -235 -361 0
-1263 -410 0
-1263 -242 634 0
-1263 -242 -310 0
-1263 -242 -311 0
-1263 -242 -312 0
-1263 -242 -364 0
-1263 -242 -365 0
-1263 -242 -366 0
-1263 -242 -367 0
-1263 -415 0
-1263 616 0
-1264 442 0
-1264 224 225 226 0
-1264 -228 624 0
-1264 -228 -297 0
-1264 -228 -298 0
-1264 -228 -299 0
-1264 -228 -353 0
-1264 -228 -354 0
-1264 -228 -355 0
-1264 -228 -356 0
-1264 -406 0
-1264 -235 629 0
-1264 -235 -304 0
-1264 -235 -305 0
-1264 -235 -306 0
-1264 -235 -359 0
-1264 -235 -360 0
-1264 -235 -361 0
-1264 -235 -362 0
-1264 -411 0
-1264 -242 634 0
-1264 -242 -311 0
-1264 -242 -312 0
-1264 -242 -313 0
-1264 -242 -365 0
-1264 -242 -366 0
-1264 -242 -367 0
-1264 -242 -368 0
-1264 -416 0
-1264 617 0
-1265 442 0
-1265 225 226 227 0
-1265 -228 624 0
-1265 -228 -298 0
-1265 -228 -299 0
-1265 -228 -300 0
-1265 -228 -354 0
-1265 -228 -355 0
-1265 -228 -356 0
-1265 -407 0
-1265 -235 629 0
-1265 -235 -305 0
-1265 -235 -306 0
-1265 -235 -307 0
-1265 -235 -360 0
-1265 -235 -361 0
-1265 -235 -362 0
-1265 -412 0
-1265 -242 634 0
-1265 -242 -312 0
-1265 -242 -313 0
-1265 -242 -314 0
-1265 -242 -366 0
-1265 -242 -367 0
-1265 -242 -368 0
-1265 -417 0
-1265 618 0
-1266 442 0
-1266 281 282 283 0
-1266 -287 624 0
-1266 -287 -236 0
-1266 -287 -237 0
-1266 -287 -238 0
-1266 -287 -352 0
-1266 -287 -353 0
-1266 -287 -354 0
-1266 -404 0
-1266 -294 629 0
-1266 -294 -243 0
-1266 -294 -244 0
-1266 -294 -245 0
-1266 -294 -358 0
-1266 -294 -359 0
-1266 -294 -360 0
-1266 -409 0
-1266 -301 634 0
-1266 -301 -250 0
-1266 -301 -251 0
-1266 -301 -252 0
-1266 -301 -364 0
-1266 -301 -365 0
-1266 -301 -366 0
-1266 -414 0
-1266 615 0
-1267 442 0
-1267 282 283 284 0
-1267 -287 624 0
-1267 -287 -237 0
-1267 -287 -238 0
-1267 -287 -239 0
-1267 -287 -352 0
-1267 -287 -353 0
-1267 -287 -354 0
-1267 -287 -355 0
-1267 -405 0
-1267 -294 629 0
-1267 -294 -244 0
-1267 -294 -245 0
-1267 -294 -246 0
-1267 -294 -358 0
-1267 -294 -359 0
-1267 -294 -360 0
-1267 -294 -361 0
-1267 -410 0
-1267 -301 634 0
-1267 -301 -251 0
-1267 -301 -252 0
-1267 -301 -253 0
-1267 -301 -364 0
-1267 -301 -365 0
-1267 -301 -366 0
-1267 -301 -367 0
-1267 -415 0
-1267 616 0
-1268 442 0
-1268 283 284 285 0
-1268 -287 624 0
-1268 -287 -238 0
-1268 -287 -239 0
-1268 -287 -240 0
-1268 -287 -353 0
-1268 -287 -354 0
-1268 -287 -355 0
-1268 -287 -356 0
-1268 -406 0
-1268 -294 629 0
-1268 -294 -245 0
-1268 -294 -246 0
-1268 -294 -247 0
-1268 -294 -359 0
-1268 -294 -360 0
-1268 -294 -361 0
-1268 -294 -362 0
-1268 -411 0
-1268 -301 634 0
-1268 -301 -252 0
-1268 -301 -253 0
-1268 -301 -254 0
-1268 -301 -365 0
-1268 -301 -366 0
-1268 -301 -367 0
-1268 -301 -368 0
-1268 -416 0
-1268 617 0
-1269 442 0
-1269 284 285 286 0
-1269 -287 624 0
-1269 -287 -239 0
-1269 -287 -240 0
-1269 -287 -241 0
-1269 -287 -354 0
-1269 -287 -355 0
-1269 -287 -356 0
-1269 -407 0
-1269 -294 629 0
-1269 -294 -246 0
-1269 -294 -247 0
-1269 -294 -248 0
-1269 -294 -360 0
-1269 -294 -361 0
-1269 -294 -362 0
-1269 -412 0
-1269 -301 634 0
-1269 -301 -253 0
-1269 -301 -254 0
-1269 -301 -255 0
-1269 -301 -366 0
-1269 -301 -367 0
-1269 -301 -368 0
-1269 -417 0
-1269 618 0
-1270 442 0
-1270 340 341 342 0
-1270 -345 624 0
-1270 -345 -236 0
-1270 -345 -237 0
-1270 -345 -238 0
-1270 -345 -295 0
-1270 -345 -296 0
-1270 -345 -297 0
-1270 -404 0
-1270 -351 629 0
-1270 -351 -243 0
-1270 -351 -244 0
-1270 -351 -245 0
-1270 -351 -302 0
-1270 -351 -303 0
-1270 -351 -304 0
-1270 -409 0
-1270 -357 634 0
-1270 -357 -250 0
-1270 -357 -251 0
-1270 -357 -252 0
-1270 -357 -309 0
-1270 -357 -310 0
-1270 -357 -311 0
-1270 -414 0
-1270 615 0
-1271 442 0
-1271 340 341 342 343 0
-1271 -345 624 0
-1271 -345 -237 0
-1271 -345 -238 0
-1271 -345 -239 0
-1271 -345 -296 0
-1271 -345 -297 0
-1271 -345 -298 0
-1271 -405 0
-1271 -351 629 0
-1271 -351 -244 0
-1271 -351 -245 0
-1271 -351 -246 0
-1271 -351 -303 0
-1271 -351 -304 0
-1271 -351 -305 0
-1271 -410 0
-1271 -357 634 0
-1271 -357 -251 0
-1271 -357 -252 0
-1271 -357 -253 0
-1271 -357 -310 0
-1271 -357 -311 0
-1271 -357 -312 0
-1271 -415 0
-1271 616 0
-1272 442 0
-1272 341 342 343 344 0
-1272 -345 624 0
-1272 -345 -238 0
-1272 -345 -239 0
-1272 -345 -240 0
-1272 -345 -297 0
-1272 -345 -298 0
-1272 -345 -299 0
-1272 -406 0
-1272 -351 629 0
-1272 -351 -245 0
-1272 -351 -246 0
-1272 -351 -247 0
-1272 -351 -304 0
-1272 -351 -305 0
-1272 -351 -306 0
-1272 -411 0
-1272 -357 634 0
-1272 -357 -252 0
-1272 -357 -253 0
-1272 -357 -254 0
-1272 -357 -311 0
-1272 -357 -312 0
-1272 -357 -313 0
-1272 -416 0
-1272 617 0
-1273 442 0
-1273 342 343 344 0
-1273 -345 624 0
-1273 -345 -239 0
-1273 -345 -240 0
-1273 -345 -241 0
-1273 -345 -298 0
-1273 -345 -299 0
-1273 -345 -300 0
-1273 -407 0
-1273 -351 629 0
-1273 -351 -246 0
-1273 -351 -247 0
-1273 -351 -248 0
-1273 -351 -305 0
-1273 -351 -306 0
-1273 -351 -307 0
-1273 -412 0
-1273 -357 634 0
-1273 -357 -253 0
-1273 -357 -254 0
-1273 -357 -255 0
-1273 -357 -312 0
-1273 -357 -313 0
-1273 -357 -314 0
-1273 -417 0
-1273 618 0
-1274 501 0
-1274 -450 0
-1274 -509 0
-1274 -567 0
-1274 -620 0
-1274 664 0
-1274 670 0
-1275 501 0
-1275 -451 0
-1275 -510 0
-1275 -567 0
-1275 -568 0
-1275 -620 0
-1275 -621 0
-1275 665 0
-1275 670 0
-1276 501 0
-1276 -452 0
-1276 -511 0
-1276 -568 0
-1276 -569 0
-1276 -620 0
-1276 -621 0
-1276 -622 0
-1276 666 0
-1276 670 0
-1277 501 0
-1277 -453 0
-1277 -512 0
-1277 -569 0
-1277 -570 0
-1277 -621 0
-1277 -622 0
-1277 -623 0
-1277 667 0
-1277 670 0
-1278 501 0
-1278 -454 0
-1278 -513 0
-1278 -570 0
-1278 -571 0
-1278 -622 0
-1278 -623 0
-1278 668 0
-1278 670 0
-1279 501 0
-1279 -455 0
-1279 -514 0
-1279 -571 0
-1279 -623 0
-1279 669 0
-1279 670 0
-1280 501 0
-1280 502 0
-1280 -508 677 0
-1280 -508 -573 0
-1280 -508 -625 0
-1280 -457 0
-1280 -515 684 0
-1280 -515 -579 0
-1280 -515 -630 0
-1280 -464 0
-1280 -522 691 0
-1280 -522 -585 0
-1280 -522 -635 0
-1280 -471 0
-1280 664 0
-1281 501 0
-1281 503 0
-1281 -508 677 0
-1281 -508 -573 0
-1281 -508 -574 0
-1281 -508 -625 0
-1281 -508 -626 0
-1281 -458 0
-1281 -515 684 0
-1281 -515 -579 0
-1281 -515 -580 0
-1281 -515 -630 0
-1281 -515 -631 0
-1281 -465 0
-1281 -522 691 0
-1281 -522 -585 0
-1281 -522 -586 0
-1281 -522 -635 0
-1281 -522 -636 0
-1281 -472 0
-1281 665 0
-1282 501 0
-1282 504 0
-1282 -508 677 0
-1282 -508 -574 0
-1282 -508 -575 0
-1282 -508 -625 0
-1282 -508 -626 0
-1282 -508 -627 0
-1282 -459 0
-1282 -515 684 0
-1282 -515 -580 0
-1282 -515 -581 0
-1282 -515 -630 0
-1282 -515 -631 0
-1282 -515 -632 0
-1282 -466 0
-1282 -522 691 0
-1282 -522 -586 0
-1282 -522 -587 0
-1282 -522 -635 0
-1282 -522 -636 0
-1282 -522 -637 0
-1282 -473 0
-1282 666 0
-1283 501 0
-1283 505 0
-1283 -508 677 0
-1283 -508 -575 0
-1283 -508 -576 0
-1283 -508 -626 0
-1283 -508 -627 0
-1283 -508 -628 0
-1283 -460 0
-1283 -515 684 0
-1283 -515 -581 0
-1283 -515 -582 0
-1283 -515 -631 0
-1283 -515 -632 0
-1283 -515 -633 0
-1283 -467 0
-1283 -522 691 0
-1283 -522 -587 0
-1283 -522 -588 0
-1283 -522 -636 0
-1283 -522 -637 0
-1283 -522 -638 0
-1283 -474 0
-1283 667 0
-1284 501 0
-1284 506 0
-1284 -508 677 0
-1284 -508 -576 0
-1284 -508 -577 0
-1284 -508 -627 0
-1284 -508 -628 0
-1284 -461 0
-1284 -515 684 0
-1284 -515 -582 0
-1284 -515 -583 0
-1284 -515 -632 0
-1284 -515 -633 0
-1284 -468 0
-1284 -522 691 0
-1284 -522 -588 0
-1284 -522 -589 0
-1284 -522 -637 0
-1284 -522 -638 0
-1284 -475 0
-1284 668 0
-1285 501 0
-1285 507 0
-1285 -508 677 0
-1285 -508 -577 0
-1285 -508 -628 0
-1285 -462 0
-1285 -515 684 0
-1285 -515 -583 0
-1285 -515 -633 0
-1285 -469 0
-1285 -522 691 0
-1285 -522 -589 0
-1285 -522 -638 0
-1285 -476 0
-1285 669 0
-1286 501 0
-1286 561 0
-1286 -566 677 0
-1286 -566 -516 0
-1286 -566 -625 0
-1286 -457 0
-1286 -572 684 0
-1286 -572 -523 0
-1286 -572 -630 0
-1286 -464 0
-1286 -578 691 0
-1286 -578 -530 0
-1286 -578 -635 0
-1286 -471 0
-1286 664 0
-1287 501 0
-1287 561 562 0
-1287 -566 677 0
-1287 -566 -517 0
-1287 -566 -625 0
-1287 -566 -626 0
-1287 -458 0
-1287 -572 684 0
-1287 -572 -524 0
-1287 -572 -630 0
-1287 -572 -631 0
-1287 -465 0
-1287 -578 691 0
-1287 -578 -531 0
-1287 -578 -635 0
-1287 -578 -636 0
-1287 -472 0
-1287 665 0
-1288 501 0
-1288 562 563 0
-1288 -566 677 0
-1288 -566 -518 0
-1288 -566 -625 0
-1288 -566 -626 0
-1288 -566 -627 0
-1288 -459 0
-1288 -572 684 0
-1288 -572 -525 0
-1288 -572 -630 0
-1288 -572 -631 0
-1288 -572 -632 0
-1288 -466 0
-1288 -578 691 0
-1288 -578 -532 0
-1288 -578 -635 0
-1288 -578 -636 0
-1288 -578 -637 0
-1288 -473 0
-1288 666 0
-1289 501 0
-1289 563 564 0
-1289 -566 677 0
-1289 -566 -519 0
-1289 -566 -626 0
-1289 -566 -627 0
-1289 -566 -628 0
-1289 -460 0
-1289 -572 684 0
-1289 -572 -526 0
-1289 -572 -631 0
-1289 -572 -632 0
-1289 -572 -633 0
-1289 -467 0
-1289 -578 691 0
-1289 -578 -533 0
-1289 -578 -636 0
-1289 -578 -637 0
-1289 -578 -638 0
-1289 -474 0
-1289 667 0
-1290 501 0
-1290 564 565 0
-1290 -566 677 0
-1290 -566 -520 0
-1290 -566 -627 0
-1290 -566 -628 0
-1290 -461 0
-1290 -572 684 0
-1290 -572 -527 0
-1290 -572 -632 0
-1290 -572 -633 0
-1290 -468 0
-1290 -578 691 0
-1290 -578 -534 0
-1290 -578 -637 0
-1290 -578 -638 0
-1290 -475 0
-1290 668 0
-1291 501 0
-1291 565 0
-1291 -566 677 0
-1291 -566 -521 0
-1291 -566 -628 0
-1291 -462 0
-1291 -572 684 0
-1291 -572 -528 0
-1291 -572 -633 0
-1291 -469 0
-1291 -578 691 0
-1291 -578 -535 0
-1291 -578 -638 0
-1291 -476 0
-1291 669 0
-1292 501 0
-1292 615 0
-1292 -619 677 0
-1292 -619 -516 0
-1292 -619 -573 0
-1292 -457 0
-1292 -624 684 0
-1292 -624 -523 0
-1292 -624 -579 0
-1292 -464 0
-1292 -629 691 0
-1292 -629 -530 0
-1292 -629 -585 0
-1292 -471 0
-1292 664 0
-1293 501 0
-1293 615 616 0
-1293 -619 677 0
-1293 -619 -517 0
-1293 -619 -573 0
-1293 -619 -574 0
-1293 -458 0
-1293 -624 684 0
-1293 -624 -524 0
-1293 -624 -579 0
-1293 -624 -580 0
-1293 -465 0
-1293 -629 691 0
-1293 -629 -531 0
-1293 -629 -585 0
-1293 -629 -586 0
-1293 -472 0
-1293 665 0
-1294 501 0
-1294 615 616 617 0
-1294 -619 677 0
-1294 -619 -518 0
-1294 -619 -574 0
-1294 -619 -575 0
-1294 -459 0
-1294 -624 684 0
-1294 -624 -525 0
-1294 -624 -580 0
-1294 -624 -581 0
-1294 -466 0
-1294 -629 691 0
-1294 -629 -532 0
-1294 -629 -586 0
-1294 -629 -587 0
-1294 -473 0
-1294 666 0
-1295 501 0
-1295 616 617 618 0
-1295 -619 677 0
-1295 -619 -519 0
-1295 -619 -575 0
-1295 -619 -576 0
-1295 -460 0
-1295 -624 684 0
-1295 -624 -526 0
-1295 -624 -581 0
-1295 -624 -582 0
-1295 -467 0
-1295 -629 691 0
-1295 -629 -533 0
-1295 -629 -587 0
-1295 -629 -588 0
-1295 -474 0
-1295 667 0
-1296 501 0
-1296 617 618 0
-1296 -619 677 0
-1296 -619 -520 0
-1296 -619 -576 0
-1296 -619 -577 0
-1296 -461 0
-1296 -624 684 0
-1296 -624 -527 0
-1296 -624 -582 0
-1296 -624 -583 0
-1296 -468 0
-1296 -629 691 0
-1296 -629 -534 0
-1296 -629 -588 0
-1296 -629 -589 0
-1296 -475 0
-1296 668 0
-1297 501 0
-1297 618 0
-1297 -619 677 0
-1297 -619 -521 0
-1297 -619 -577 0
-1297 -462 0
-1297 -624 684 0
-1297 -624 -528 0
-1297 -624 -583 0
-1297 -469 0
-1297 -629 691 0
-1297 -629 -535 0
-1297 -629 -589 0
-1297 -476 0
-1297 669 0
-1298 560 0
-1298 -509 0
-1298 -450 0
-1298 -567 0
-1298 -620 0
-1298 723 0
-1298 729 0
-1299 560 0
-1299 -510 0
-1299 -451 0
-1299 -567 0
-1299 -568 0
-1299 -620 0
-1299 -621 0
-1299 724 0
-1299 729 0
-1300 560 0
-1300 -511 0
-1300 -452 0
-1300 -568 0
-1300 -569 0
-1300 -620 0
-1300 -621 0
-1300 -622 0
-1300 725 0
-1300 729 0
-1301 560 0
-1301 -512 0
-1301 -453 0
-1301 -569 0
-1301 -570 0
-1301 -621 0
-1301 -622 0
-1301 -623 0
-1301 726 0
-1301 729 0
-1302 560 0
-1302 -513 0
-1302 -454 0
-1302 -570 0
-1302 -571 0
-1302 -622 0
-1302 -623 0
-1302 727 0
-1302 729 0
-1303 560 0
-1303 -514 0
-1303 -455 0
-1303 -571 0
-1303 -623 0
-1303 728 0
-1303 729 0
-1304 560 0
-1304 443 0
-1304 -449 736 0
-1304 -449 -573 0
-1304 -449 -625 0
-1304 -516 0
-1304 -456 743 0
-1304 -456 -579 0
-1304 -456 -630 0
-1304 -523 0
-1304 -463 750 0
-1304 -463 -585 0
-1304 -463 -635 0
-1304 -530 0
-1304 723 0
-1305 560 0
-1305 444 0
-1305 -449 736 0
-1305 -449 -573 0
-1305 -449 -574 0
-1305 -449 -625 0
-1305 -449 -626 0
-1305 -517 0
-1305 -456 743 0
-1305 -456 -579 0
-1305 -456 -580 0
-1305 -456 -630 0
-1305 -456 -631 0
-1305 -524 0
-1305 -463 750 0
-1305 -463 -585 0
-1305 -463 -586 0
-1305 -463 -635 0
-1305 -463 -636 0
-1305 -531 0
-1305 724 0
-1306 560 0
-1306 445 0
-1306 -449 736 0
-1306 -449 -574 0
-1306 -449 -575 0
-1306 -449 -625 0
-1306 -449 -626 0
-1306 -449 -627 0
-1306 -518 0
-1306 -456 743 0
-1306 -456 -580 0
-1306 -456 -581 0
-1306 -456 -630 0
-1306 -456 -631 0
-1306 -456 -632 0
-1306 -525 0
-1306 -463 750 0
-1306 -463 -586 0
-1306 -463 -587 0
-1306 -463 -635 0
-1306 -463 -636 0
-1306 -463 -637 0
-1306 -532 0
-1306 725 0
-1307 560 0
-1307 446 0
-1307 -449 736 0
-1307 -449 -575 0
-1307 -449 -576 0
-1307 -449 -626 0
-1307 -449 -627 0
-1307 -449 -628 0
-1307 -519 0
-1307 -456 743 0
-1307 -456 -581 0
-1307 -456 -582 0
-1307 -456 -631 0
-1307 -456 -632 0
-1307 -456 -633 0
-1307 -526 0
-1307 -463 750 0
-1307 -463 -587 0
-1307 -463 -588 0
-1307 -463 -636 0
-1307 -463 -637 0
-1307 -463 -638 0
-1307 -533 0
-1307 726 0
-1308 560 0
-1308 447 0
-1308 -449 736 0
-1308 -449 -576 0
-1308 -449 -577 0
-1308 -449 -627 0
-1308 -449 -628 0
-1308 -520 0
-1308 -456 743 0
-1308 -456 -582 0
-1308 -456 -583 0
-1308 -456 -632 0
-1308 -456 -633 0
-1308 -527 0
-1308 -463 750 0
-1308 -463 -588 0
-1308 -463 -589 0
-1308 -463 -637 0
-1308 -463 -638 0
-1308 -534 0
-1308 727 0
-1309 560 0
-1309 448 0
-1309 -449 736 0
-1309 -449 -577 0
-1309 -449 -628 0
-1309 -521 0
-1309 -456 743 0
-1309 -456 -583 0
-1309 -456 -633 0
-1309 -528 0
-1309 -463 750 0
-1309 -463 -589 0
-1309 -463 -638 0
-1309 -535 0
-1309 728 0
-1310 560 0
-1310 561 0
-1310 -566 736 0
-1310 -566 -457 0
-1310 -566 -625 0
-1310 -516 0
-1310 -572 743 0
-1310 -572 -464 0
-1310 -572 -630 0
-1310 -523 0
-1310 -578 750 0
-1310 -578 -471 0
-1310 -578 -635 0
-1310 -530 0
-1310 723 0
-1311 560 0
-1311 561 562 0
-1311 -566 736 0
-1311 -566 -458 0
-1311 -566 -625 0
-1311 -566 -626 0
-1311 -517 0
-1311 -572 743 0
-1311 -572 -465 0
-1311 -572 -630 0
-1311 -572 -631 0
-1311 -524 0
-1311 -578 750 0
-1311 -578 -472 0
-1311 -578 -635 0
-1311 -578 -636 0
-1311 -531 0
-1311 724 0
-1312 560 0
-1312 562 563 0
-1312 -566 736 0
-1312 -566 -459 0
-1312 -566 -625 0
-1312 -566 -626 0
-1312 -566 -627 0
-1312 -518 0
-1312 -572 743 0
-1312 -572 -466 0
-1312 -572 -630 0
-1312 -572 -631 0
-1312 -572 -632 0
-1312 -525 0
-1312 -578 750 0
-1312 -578 -473 0
-1312 -578 -635 0
-1312 -578 -636 0
-1312 -578 -637 0
-1312 -532 0
-1312 725 0
-1313 560 0
-1313 563 564 0
-1313 -566 736 0
-1313 -566 -460 0
-1313 -566 -626 0
-1313 -566 -627 0
-1313 -566 -628 0
-1313 -519 0
-1313 -572 743 0
-1313 -572 -467 0
-1313 -572 -631 0
-1313 -572 -632 0
-1313 -572 -633 0
-1313 -526 0
-1313 -578 750 0
-1313 -578 -474 0
-1313 -578 -636 0
-1313 -578 -637 0
-1313 -578 -638 0
-1313 -533 0
-1313 726 0
-1314 560 0
-1314 564 565 0
-1314 -566 736 0
-1314 -566 -461 0
-1314 -566 -627 0
-1314 -566 -628 0
-1314 -520 0
-1314 -572 743 0
-1314 -572 -468 0
-1314 -572 -632 0
-1314 -572 -633 0
-1314 -527 0
-1314 -578 750 0
-1314 -578 -475 0
-1314 -578 -637 0
-1314 -578 -638 0
-1314 -534 0
-1314 727 0
-1315 560 0
-1315 565 0
-1315 -566 736 0
-1315 -566 -462 0
-1315 -566 -628 0
-1315 -521 0
-1315 -572 743 0
-1315 -572 -469 0
-1315 -572 -633 0
-1315 -528 0
-1315 -578 750 0
-1315 -578 -476 0
-1315 -578 -638 0
-1315 -535 0
-1315 728 0
-1316 560 0
-1316 615 0
-1316 -619 736 0
-1316 -619 -457 0
-1316 -619 -573 0
-1316 -516 0
-1316 -624 743 0
-1316 -624 -464 0
-1316 -624 -579 0
-1316 -523 0
-1316 -629 750 0
-1316 -629 -471 0
-1316 -629 -585 0
-1316 -530 0
-1316 723 0
-1317 560 0
-1317 615 616 0
-1317 -619 736 0
-1317 -619 -458 0
-1317 -619 -573 0
-1317 -619 -574 0
-1317 -517 0
-1317 -624 743 0
-1317 -624 -465 0
-1317 -624 -579 0
-1317 -624 -580 0
-1317 -524 0
-1317 -629 750 0
-1317 -629 -472 0
-1317 -629 -585 0
-1317 -629 -586 0
-1317 -531 0
-1317 724 0
-1318 560 0
-1318 615 616 617 0
-1318 -619 736 0
-1318 -619 -459 0
-1318 -619 -574 0
-1318 -619 -575 0
-1318 -518 0
-1318 -624 743 0
-1318 -624 -466 0
-1318 -624 -580 0
-1318 -624 -581 0
-1318 -525 0
-1318 -629 750 0
-1318 -629 -473 0
-1318 -629 -586 0
-1318 -629 -587 0
-1318 -532 0
-1318 725 0
-1319 560 0
-1319 616 617 618 0
-1319 -619 736 0
-1319 -619 -460 0
-1319 -619 -575 0
-1319 -619 -576 0
-1319 -519 0
-1319 -624 743 0
-1319 -624 -467 0
-1319 -624 -581 0
-1319 -624 -582 0
-1319 -526 0
-1319 -629 750 0
-1319 -629 -474 0
-1319 -629 -587 0
-1319 -629 -588 0
-1319 -533 0
-1319 726 0
-1320 560 0
-1320 617 618 0
-1320 -619 736 0
-1320 -619 -461 0
-1320 -619 -576 0
-1320 -619 -577 0
-1320 -520 0
-1320 -624 743 0
-1320 -624 -468 0
-1320 -624 -582 0
-1320 -624 -583 0
-1320 -527 0
-1320 -629 750 0
-1320 -629 -475 0
-1320 -629 -588 0
-1320 -629 -589 0
-1320 -534 0
-1320 727 0
-1321 560 0
-1321 618 0
-1321 -619 736 0
-1321 -619 -462 0
-1321 -619 -577 0
-1321 -521 0
-1321 -624 743 0
-1321 -624 -469 0
-1321 -624 -583 0
-1321 -528 0
-1321 -629 750 0
-1321 -629 -476 0
-1321 -629 -589 0
-1321 -535 0
-1321 728 0
-1322 614 0
-1322 -567 0
-1322 -450 0
-1322 -451 0
-1322 -509 0
-1322 -510 0
-1322 -620 0
-1322 -621 0
-1322 782 0
-1322 787 0
-1323 614 0
-1323 -568 0
-1323 -451 0
-1323 -452 0
-1323 -510 0
-1323 -511 0
-1323 -620 0
-1323 -621 0
-1323 -622 0
-1323 783 0
-1323 787 0
-1324 614 0
-1324 -569 0
-1324 -452 0
-1324 -453 0
-1324 -511 0
-1324 -512 0
-1324 -620 0
-1324 -621 0
-1324 -622 0
-1324 -623 0
-1324 784 0
-1324 787 0
-1325 614 0
-1325 -570 0
-1325 -453 0
-1325 -454 0
-1325 -512 0
-1325 -513 0
-1325 -621 0
-1325 -622 0
-1325 -623 0
-1325 785 0
-1325 787 0
-1326 614 0
-1326 -571 0
-1326 -454 0
-1326 -455 0
-1326 -513 0
-1326 -514 0
-1326 -622 0
-1326 -623 0
-1326 786 0
-1326 787 0
-1327 614 0
-1327 443 444 0
-1327 -449 793 0
-1327 -449 -516 0
-1327 -449 -517 0
-1327 -449 -625 0
-1327 -449 -626 0
-1327 -573 0
-1327 -456 799 0
-1327 -456 -523 0
-1327 -456 -524 0
-1327 -456 -630 0
-1327 -456 -631 0
-1327 -579 0
-1327 -463 805 0
-1327 -463 -530 0
-1327 -463 -531 0
-1327 -463 -635 0
-1327 -463 -636 0
-1327 -585 0
-1327 782 0
-1328 614 0
-1328 444 445 0
-1328 -449 793 0
-1328 -449 -517 0
-1328 -449 -518 0
-1328 -449 -625 0
-1328 -449 -626 0
-1328 -449 -627 0
-1328 -574 0
-1328 -456 799 0
-1328 -456 -524 0
-1328 -456 -525 0
-1328 -456 -630 0
-1328 -456 -631 0
-1328 -456 -632 0
-1328 -580 0
-1328 -463 805 0
-1328 -463 -531 0
-1328 -463 -532 0
-1328 -463 -635 0
-1328 -463 -636 0
-1328 -463 -637 0
-1328 -586 0
-1328 783 0
-1329 614 0
-1329 445 446 0
-1329 -449 793 0
-1329 -449 -518 0
-1329 -449 -519 0
-1329 -449 -625 0
-1329 -449 -626 0
-1329 -449 -627 0
-1329 -449 -628 0
-1329 -575 0
-1329 -456 799 0
-1329 -456 -525 0
-1329 -456 -526 0
-1329 -456 -630 0
-1329 -456 -631 0
-1329 -456 -632 0
-1329 -456 -633 0
-1329 -581 0
-1329 -463 805 0
-1329 -463 -532 0
-1329 -463 -533 0
-1329 -463 -635 0
-1329 -463 -636 0
-1329 -463 -637 0
-1329 -463 -638 0
-1329 -587 0
-1329 784 0
-1330 614 0
-1330 446 447 0
-1330 -449 793 0
-1330 -449 -519 0
-1330 -449 -520 0
-1330 -449 -626 0
-1330 -449 -627 0
-1330 -449 -628 0
-1330 -576 0
-1330 -456 799 0
-1330 -456 -526 0
-1330 -456 -527 0
-1330 -456 -631 0
-1330 -456 -632 0
-1330 -456 -633 0
-1330 -582 0
-1330 -463 805 0
-1330 -463 -533 0
-1330 -463 -534 0
-1330 -463 -636 0
-1330 -463 -637 0
-1330 -463 -638 0
-1330 -588 0
-1330 785 0
-1331 614 0
-1331 447 448 0
-1331 -449 793 0
-1331 -449 -520 0
-1331 -449 -521 0
-1331 -449 -627 0
-1331 -449 -628 0
-1331 -577 0
-1331 -456 799 0
-1331 -456 -527 0
-1331 -456 -528 0
-1331 -456 -632 0
-1331 -456 -633 0
-1331 -583 0
-1331 -463 805 0
-1331 -463 -534 0
-1331 -463 -535 0
-1331 -463 -637 0
-1331 -463 -638 0
-1331 -589 0
-1331 786 0
-1332 614 0
-1332 502 503 0
-1332 -508 793 0
-1332 -508 -457 0
-1332 -508 -458 0
-1332 -508 -625 0
-1332 -508 -626 0
-1332 -573 0
-1332 -515 799 0
-1332 -515 -464 0
-1332 -515 -465 0
-1332 -515 -630 0
-1332 -515 -631 0
-1332 -579 0
-1332 -522 805 0
-1332 -522 -471 0
-1332 -522 -472 0
-1332 -522 -635 0
-1332 -522 -636 0
-1332 -585 0
-1332 782 0
-1333 614 0
-1333 503 504 0
-1333 -508 793 0
-1333 -508 -458 0
-1333 -508 -459 0
-1333 -508 -625 0
-1333 -508 -626 0
-1333 -508 -627 0
-1333 -574 0
-1333 -515 799 0
-1333 -515 -465 0
-1333 -515 -466 0
-1333 -515 -630 0
-1333 -515 -631 0
-1333 -515 -632 0
-1333 -580 0
-1333 -522 805 0
-1333 -522 -472 0
-1333 -522 -473 0
-1333 -522 -635 0
-1333 -522 -636 0
-1333 -522 -637 0
-1333 -586 0
-1333 783 0
-1334 614 0
-1334 504 505 0
-1334 -508 793 0
-1334 -508 -459 0
-1334 -508 -460 0
-1334 -508 -625 0
-1334 -508 -626 0
-1334 -508 -627 0
-1334 -508 -628 0
-1334 -575 0
-1334 -515 799 0
-1334 -515 -466 0
-1334 -515 -467 0
-1334 -515 -630 0
-1334 -515 -631 0
-1334 -515 -632 0
-1334 -515 -633 0
-1334 -581 0
-1334 -522 805 0
-1334 -522 -473 0
-1334 -522 -474 0
-1334 -522 -635 0
-1334 -522 -636 0
-1334 -522 -637 0
-1334 -522 -638 0
-1334 -587 0
-1334 784 0
-1335 614 0
-1335 505 506 0
-1335 -508 793 0
-1335 -508 -460 0
-1335 -508 -461 0
-1335 -508 -626 0
-1335 -508 -627 0
-1335 -508 -628 0
-1335 -576 0
-1335 -515 799 0
-1335 -515 -467 0
-1335 -515 -468 0
-1335 -515 -631 0
-1335 -515 -632 0
-1335 -515 -633 0
-1335 -582 0
-1335 -522 805 0
-1335 -522 -474 0
-1335 -522 -475 0
-1335 -522 -636 0
-1335 -522 -637 0
-1335 -522 -638 0
-1335 -588 0
-1335 785 0
-1336 614 0
-1336 506 507 0
-1336 -508 793 0
-1336 -508 -461 0
-1336 -508 -462 0
-1336 -508 -627 0
-1336 -508 -628 0
-1336 -577 0
-1336 -515 799 0
-1336 -515 -468 0
-1336 -515 -469 0
-1336 -515 -632 0
-1336 -515 -633 0
-1336 -583 0
-1336 -522 805 0
-1336 -522 -475 0
-1336 -522 -476 0
-1336 -522 -637 0
-1336 -522 -638 0
-1336 -589 0
-1336 786 0
-1337 614 0
-1337 615 616 0
-1337 -619 793 0
-1337 -619 -457 0
-1337 -619 -458 0
-1337 -619 -516 0
-1337 -619 -517 0
-1337 -573 0
-1337 -624 799 0
-1337 -624 -464 0
-1337 -624 -465 0
-1337 -624 -523 0
-1337 -624 -524 0
-1337 -579 0
-1337 -629 805 0
-1337 -629 -471 0
-1337 -629 -472 0
-1337 -629 -530 0
-1337 -629 -531 0
-1337 -585 0
-1337 782 0
-1338 614 0
-1338 615 616 617 0
-1338 -619 793 0
-1338 -619 -458 0
-1338 -619 -459 0
-1338 -619 -517 0
-1338 -619 -518 0
-1338 -574 0
-1338 -624 799 0
-1338 -624 -465 0
-1338 -624 -466 0
-1338 -624 -524 0
-1338 -624 -525 0
-1338 -580 0
-1338 -629 805 0
-1338 -629 -472 0
-1338 -629 -473 0
-1338 -629 -531 0
-1338 -629 -532 0
-1338 -586 0
-1338 783 0
-1339 614 0
-1339 615 616 617 618 0
-1339 -619 793 0
-1339 -619 -459 0
-1339 -619 -460 0
-1339 -619 -518 0
-1339 -619 -519 0
-1339 -575 0
-1339 -624 799 0
-1339 -624 -466 0
-1339 -624 -467 0
-1339 -624 -525 0
-1339 -624 -526 0
-1339 -581 0
-1339 -629 805 0
-1339 -629 -473 0
-1339 -629 -474 0
-1339 -629 -532 0
-1339 -629 -533 0
-1339 -587 0
-1339 784 0
-1340 614 0
-1340 616 617 618 0
-1340 -619 793 0
-1340 -619 -460 0
-1340 -619 -461 0
-1340 -619 -519 0
-1340 -619 -520 0
-1340 -576 0
-1340 -624 799 0
-1340 -624 -467 0
-1340 -624 -468 0
-1340 -624 -526 0
-1340 -624 -527 0
-1340 -582 0
-1340 -629 805 0
-1340 -629 -474 0
-1340 -629 -475 0
-1340 -629 -533 0
-1340 -629 -534 0
-1340 -588 0
-1340 785 0
-1341 614 0
-1341 617 618 0
-1341 -619 793 0
-1341 -619 -461 0
-1341 -619 -462 0
-1341 -619 -520 0
-1341 -619 -521 0
-1341 -577 0
-1341 -624 799 0
-1341 -624 -468 0
-1341 -624 -469 0
-1341 -624 -527 0
-1341 -624 -528 0
-1341 -583 0
-1341 -629 805 0
-1341 -629 -475 0
-1341 -629 -476 0
-1341 -629 -534 0
-1341 -629 -535 0
-1341 -589 0
-1341 786 0
-1342 663 0
-1342 -620 0
-1342 -450 0
-1342 -451 0
-1342 -452 0
-1342 -509 0
-1342 -510 0
-1342 -511 0
-1342 -567 0
-1342 -568 0
-1342 -569 0
-1342 836 0
-1342 840 0
-1343 663 0
-1343 -621 0
-1343 -451 0
-1343 -452 0
-1343 -453 0
-1343 -510 0
-1343 -511 0
-1343 -512 0
-1343 -567 0
-1343 -568 0
-1343 -569 0
-1343 -570 0
-1343 837 0
-1343 840 0
-1344 663 0
-1344 -622 0
-1344 -452 0
-1344 -453 0
-1344 -454 0
-1344 -511 0
-1344 -512 0
-1344 -513 0
-1344 -568 0
-1344 -569 0
-1344 -570 0
-1344 -571 0
-1344 838 0
-1344 840 0
-1345 663 0
-1345 -623 0
-1345 -453 0
-1345 -454 0
-1345 -455 0
-1345 -512 0
-1345 -513 0
-1345 -514 0
-1345 -569 0
-1345 -570 0
-1345 -571 0
-1345 839 0
-1345 840 0
-1346 663 0
-1346 443 444 445 0
-1346 -449 845 0
-1346 -449 -516 0
-1346 -449 -517 0
-1346 -449 -518 0
-1346 -449 -573 0
-1346 -449 -574 0
-1346 -449 -575 0
-1346 -625 0
-1346 -456 850 0
-1346 -456 -523 0
-1346 -456 -524 0
-1346 -456 -525 0
-1346 -456 -579 0
-1346 -456 -580 0
-1346 -456 -581 0
-1346 -630 0
-1346 -463 855 0
-1346 -463 -530 0
-1346 -463 -531 0
-1346 -463 -532 0
-1346 -463 -585 0
-1346 -463 -586 0
-1346 -463 -587 0
-1346 -635 0
-1346 836 0
-1347 663 0
-1347 444 445 446 0
-1347 -449 845 0
-1347 -449 -517 0
-1347 -449 -518 0
-1347 -449 -519 0
-1347 -449 -573 0
-1347 -449 -574 0
-1347 -449 -575 0
-1347 -449 -576 0
-1347 -626 0
-1347 -456 850 0
-1347 -456 -524 0
-1347 -456 -525 0
-1347 -456 -526 0
-1347 -456 -579 0
-1347 -456 -580 0
-1347 -456 -581 0
-1347 -456 -582 0
-1347 -631 0
-1347 -463 855 0
-1347 -463 -531 0
-1347 -463 -532 0
-1347 -463 -533 0
-1347 -463 -585 0
-1347 -463 -586 0
-1347 -463 -587 0
-1347 -463 -588 0
-1347 -636 0
-1347 837 0
-1348 663 0
-1348 445 446 447 0
-1348 -449 845 0
-1348 -449 -518 0
-1348 -449 -519 0
-1348 -449 -520 0
-1348 -449 -574 0
-1348 -449 -575 0
-1348 -449 -576 0
-1348 -449 -577 0
-1348 -627 0
-1348 -456 850 0
-1348 -456 -525 0
-1348 -456 -526 0
-1348 -456 -527 0
-1348 -456 -580 0
-1348 -456 -581 0
-1348 -456 -582 0
-1348 -456 -583 0
-1348 -632 0
-1348 -463 855 0
-1348 -463 -532 0
-1348 -463 -533 0
-1348 -463 -534 0
-1348 -463 -586 0
-1348 -463 -587 0
-1348 -463 -588 0
-1348 -463 -589 0
-1348 -637 0
-1348 838 0
-1349 663 0
-1349 446 447 448 0
-1349 -449 845 0
-1349 -449 -519 0
-1349 -449 -520 0
-1349 -449 -521 0
-1349 -449 -575 0
-1349 -449 -576 0
-1349 -449 -577 0
-1349 -628 0
-1349 -456 850 0
-1349 -456 -526 0
-1349 -456 -527 0
-1349 -456 -528 0
-1349 -456 -581 0
-1349 -456 -582 0
-1349 -456 -583 0
-1349 -633 0
-1349 -463 855 0
-1349 -463 -533 0
-1349 -463 -534 0
-1349 -463 -535 0
-1349 -463 -587 0
-1349 -463 -588 0
-1349 -463 -589 0
-1349 -638 0
-1349 839 0
-1350 663 0
-1350 502 503 504 0
-1350 -508 845 0
-1350 -508 -457 0
-1350 -508 -458 0
-1350 -508 -459 0
-1350 -508 -573 0
-1350 -508 -574 0
-1350 -508 -575 0
-1350 -625 0
-1350 -515 850 0
-1350 -515 -464 0
-1350 -515 -465 0
-1350 -515 -466 0
-1350 -515 -579 0
-1350 -515 -580 0
-1350 -515 -581 0
-1350 -630 0
-1350 -522 855 0
-1350 -522 -471 0
-1350 -522 -472 0
-1350 -522 -473 0
-1350 -522 -585 0
-1350 -522 -586 0
-1350 -522 -587 0
-1350 -635 0
-1350 836 0
-1351 663 0
-1351 503 504 505 0
-1351 -508 845 0
-1351 -508 -458 0
-1351 -508 -459 0
-1351 -508 -460 0
-1351 -508 -573 0
-1351 -508 -574 0
-1351 -508 -575 0
-1351 -508 -576 0
-1351 -626 0
-1351 -515 850 0
-1351 -515 -465 0
-1351 -515 -466 0
-1351 -515 -467 0
-1351 -515 -579 0
-1351 -515 -580 0
-1351 -515 -581 0
-1351 -515 -582 0
-1351 -631 0
-1351 -522 855 0
-1351 -522 -472 0
-1351 -522 -473 0
-1351 -522 -474 0
-1351 -522 -585 0
-1351 -522 -586 0
-1351 -522 -587 0
-1351 -522 -588 0
-1351 -636 0
-1351 837 0
-1352 663 0
-1352 504 505 506 0
-1352 -508 845 0
-1352 -508 -459 0
-1352 -508 -460 0
-1352 -508 -461 0
-1352 -508 -574 0
-1352 -508 -575 0
-1352 -508 -576 0
-1352 -508 -577 0
-1352 -627 0
-1352 -515 850 0
-1352 -515 -466 0
-1352 -515 -467 0
-1352 -515 -468 0
-1352 -515 -580 0
-1352 -515 -581 0
-1352 -515 -582 0
-1352 -515 -583 0
-1352 -632 0
-1352 -522 855 0
-1352 -522 -473 0
-1352 -522 -474 0
-1352 -522 -475 0
-1352 -522 -586 0
-1352 -522 -587 0
-1352 -522 -588 0
-1352 -522 -589 0
-1352 -637 0
-1352 838 0
-1353 663 0
-1353 505 506 507 0
-1353 -508 845 0
-1353 -508 -460 0
-1353 -508 -461 0
-1353 -508 -462 0
-1353 -508 -575 0
-1353 -508 -576 0
-1353 -508 -577 0
-1353 -628 0
-1353 -515 850 0
-1353 -515 -467 0
-1353 -515 -468 0
-1353 -515 -469 0
-1353 -515 -581 0
-1353 -515 -582 0
-1353 -515 -583 0
-1353 -633 0
-1353 -522 855 0
-1353 -522 -474 0
-1353 -522 -475 0
-1353 -522 -476 0
-1353 -522 -587 0
-1353 -522 -588 0
-1353 -522 -589 0
-1353 -638 0
-1353 839 0
-1354 663 0
-1354 561 562 563 0
-1354 -566 845 0
-1354 -566 -457 0
-1354 -566 -458 0
-1354 -566 -459 0
-1354 -566 -516 0
-1354 -566 -517 0
-1354 -566 -518 0
-1354 -625 0
-1354 -572 850 0
-1354 -572 -464 0
-1354 -572 -465 0
-1354 -572 -466 0
-1354 -572 -523 0
-1354 -572 -524 0
-1354 -572 -525 0
-1354 -630 0
-1354 -578 855 0
-1354 -578 -471 0
-1354 -578 -472 0
-1354 -578 -473 0
-1354 -578 -530 0
-1354 -578 -531 0
-1354 -578 -532 0
-1354 -635 0
-1354 836 0
-1355 663 0
-1355 561 562 563 564 0
-1355 -566 845 0
-1355 -566 -458 0
-1355 -566 -459 0
-1355 -566 -460 0
-1355 -566 -517 0
-1355 -566 -518 0
-1355 -566 -519 0
-1355 -626 0
-1355 -572 850 0
-1355 -572 -465 0
-1355 -572 -466 0
-1355 -572 -467 0
-1355 -572 -524 0
-1355 -572 -525 0
-1355 -572 -526 0
-1355 -631 0
-1355 -578 855 0
-1355 -578 -472 0
-1355 -578 -473 0
-1355 -578 -474 0
-1355 -578 -531 0
-1355 -578 -532 0
-1355 -578 -533 0
-1355 -636 0
-1355 837 0
-1356 663 0
-1356 562 563 564 565 0
-1356 -566 845 0
-1356 -566 -459 0
-1356 -566 -460 0
-1356 -566 -461 0
-1356 -566 -518 0
-1356 -566 -519 0
-1356 -566 -520 0
-1356 -627 0
-1356 -572 850 0
-1356 -572 -466 0
-1356 -572 -467 0
-1356 -572 -468 0
-1356 -572 -525 0
-1356 -572 -526 0
-1356 -572 -527 0
-1356 -632 0
-1356 -578 855 0
-1356 -578 -473 0
-1356 -578 -474 0
-1356 -578 -475 0
-1356 -578 -532 0
-1356 -578 -533 0
-1356 -578 -534 0
-1356 -637 0
-1356 838 0
-1357 663 0
-1357 563 564 565 0
-1357 -566 845 0
-1357 -566 -460 0
-1357 -566 -461 0
-1357 -566 -462 0
-1357 -566 -519 0
-1357 -566 -520 0
-1357 -566 -521 0
-1357 -628 0
-1357 -572 850 0
-1357 -572 -467 0
-1357 -572 -468 0
-1357 -572 -469 0
-1357 -572 -526 0
-1357 -572 -527 0
-1357 -572 -528 0
-1357 -633 0
-1357 -578 855 0
-1357 -578 -474 0
-1357 -578 -475 0
-1357 -578 -476 0
-1357 -578 -533 0
-1357 -578 -534 0
-1357 -578 -535 0
-1357 -638 0
-1357 839 0
-1358 722 0
-1358 -671 0
-1358 -730 0
-1358 -788 0
-1358 -841 0
-1358 885 0
-1358 891 0
-1359 722 0
-1359 -672 0
-1359 -731 0
-1359 -788 0
-1359 -789 0
-1359 -841 0
-1359 -842 0
-1359 886 0
-1359 891 0
-1360 722 0
-1360 -673 0
-1360 -732 0
-1360 -789 0
-1360 -790 0
-1360 -841 0
-1360 -842 0
-1360 -843 0
-1360 887 0
-1360 891 0
-1361 722 0
-1361 -674 0
-1361 -733 0
-1361 -790 0
-1361 -791 0
-1361 -842 0
-1361 -843 0
-1361 -844 0
-1361 888 0
-1361 891 0
-1362 722 0
-1362 -675 0
-1362 -734 0
-1362 -791 0
-1362 -792 0
-1362 -843 0
-1362 -844 0
-1362 889 0
-1362 891 0
-1363 722 0
-1363 -676 0
-1363 -735 0
-1363 -792 0
-1363 -844 0
-1363 890 0
-1363 891 0
-1364 722 0
-1364 723 0
-1364 -729 898 0
-1364 -729 -794 0
-1364 -729 -846 0
-1364 -678 0
-1364 -736 905 0
-1364 -736 -800 0
-1364 -736 -851 0
-1364 -685 0
-1364 -743 912 0
-1364 -743 -806 0
-1364 -743 -856 0
-1364 -692 0
-1364 885 0
-1365 722 0
-1365 724 0
-1365 -729 898 0
-1365 -729 -794 0
-1365 -729 -795 0
-1365 -729 -846 0
-1365 -729 -847 0
-1365 -679 0
-1365 -736 905 0
-1365 -736 -800 0
-1365 -736 -801 0
-1365 -736 -851 0
-1365 -736 -852 0
-1365 -686 0
-1365 -743 912 0
-1365 -743 -806 0
-1365 -743 -807 0
-1365 -743 -856 0
-1365 -743 -857 0
-1365 -693 0
-1365 886 0
-1366 722 0
-1366 725 0
-1366 -729 898 0
-1366 -729 -795 0
-1366 -729 -796 0
-1366 -729 -846 0
-1366 -729 -847 0
-1366 -729 -848 0
-1366 -680 0
-1366 -736 905 0
-1366 -736 -801 0
-1366 -736 -802 0
-1366 -736 -851 0
-1366 -736 -852 0
-1366 -736 -853 0
-1366 -687 0
-1366 -743 912 0
-1366 -743 -807 0
-1366 -743 -808 0
-1366 -743 -856 0
-1366 -743 -857 0
-1366 -743 -858 0
-1366 -694 0
-1366 887 0
-1367 722 0
-1367 726 0
-1367 -729 898 0
-1367 -729 -796 0
-1367 -729 -797 0
-1367 -729 -847 0
-1367 -729 -848 0
-1367 -729 -849 0
-1367 -681 0
-1367 -736 905 0
-1367 -736 -802 0
-1367 -736 -803 0
-1367 -736 -852 0
-1367 -736 -853 0
-1367 -736 -854 0
-1367 -688 0
-1367 -743 912 0
-1367 -743 -808 0
-1367 -743 -809 0
-1367 -743 -857 0
-1367 -743 -858 0
-1367 -743 -859 0
-1367 -695 0
-1367 888 0
-1368 722 0
-1368 727 0
-1368 -729 898 0
-1368 -729 -797 0
-1368 -729 -798 0
-1368 -729 -848 0
-1368 -729 -849 0
-1368 -682 0
-1368 -736 905 0
-1368 -736 -803 0
-1368 -736 -804 0
-1368 -736 -853 0
-1368 -736 -854 0
-1368 -689 0
-1368 -743 912 0
-1368 -743 -809 0
-1368 -743 -810 0
-1368 -743 -858 0
-1368 -743 -859 0
-1368 -696 0
-1368 889 0
-1369 722 0
-1369 728 0
-1369 -729 898 0
-1369 -729 -798 0
-1369 -729 -849 0
-1369 -683 0
-1369 -736 905 0
-1369 -736 -804 0
-1369 -736 -854 0
-1369 -690 0
-1369 -743 912 0
-1369 -743 -810 0
-1369 -743 -859 0
-1369 -697 0
-1369 890 0
-1370 722 0
-1370 782 0
-1370 -787 898 0
-1370 -787 -737 0
-1370 -787 -846 0
-1370 -678 0
-1370 -793 905 0
-1370 -793 -744 0
-1370 -793 -851 0
-1370 -685 0
-1370 -799 912 0
-1370 -799 -751 0
-1370 -799 -856 0
-1370 -692 0
-1370 885 0
-1371 722 0
-1371 782 783 0
-1371 -787 898 0
-1371 -787 -738 0
-1371 -787 -846 0
-1371 -787 -847 0
-1371 -679 0
-1371 -793 905 0
-1371 -793 -745 0
-1371 -793 -851 0
-1371 -793 -852 0
-1371 -686 0
-1371 -799 912 0
-1371 -799 -752 0
-1371 -799 -856 0
-1371 -799 -857 0
-1371 -693 0
-1371 886 0
-1372 722 0
-1372 783 784 0
-1372 -787 898 0
-1372 -787 -739 0
-1372 -787 -846 0
-1372 -787 -847 0
-1372 -787 -848 0
-1372 -680 0
-1372 -793 905 0
-1372 -793 -746 0
-1372 -793 -851 0
-1372 -793 -852 0
-1372 -793 -853 0
-1372 -687 0
-1372 -799 912 0
-1372 -799 -753 0
-1372 -799 -856 0
-1372 -799 -857 0
-1372 -799 -858 0
-1372 -694 0
-1372 887 0
-1373 722 0
-1373 784 785 0
-1373 -787 898 0
-1373 -787 -740 0
-1373 -787 -847 0
-1373 -787 -848 0
-1373 -787 -849 0
-1373 -681 0
-1373 -793 905 0
-1373 -793 -747 0
-1373 -793 -852 0
-1373 -793 -853 0
-1373 -793 -854 0
-1373 -688 0
-1373 -799 912 0
-1373 -799 -754 0
-1373 -799 -857 0
-1373 -799 -858 0
-1373 -799 -859 0
-1373 -695 0
-1373 888 0
-1374 722 0
-1374 785 786 0
-1374 -787 898 0
-1374 -787 -741 0
-1374 -787 -848 0
-1374 -787 -849 0
-1374 -682 0
-1374 -793 905 0
-1374 -793 -748 0
-1374 -793 -853 0
-1374 -793 -854 0
-1374 -689 0
-1374 -799 912 0
-1374 -799 -755 0
-1374 -799 -858 0
-1374 -799 -859 0
-1374 -696 0
-1374 889 0
-1375 722 0
-1375 786 0
-1375 -787 898 0
-1375 -787 -742 0
-1375 -787 -849 0
-1375 -683 0
-1375 -793 905 0
-1375 -793 -749 0
-1375 -793 -854 0
-1375 -690 0
-1375 -799 912 0
-1375 -799 -756 0
-1375 -799 -859 0
-1375 -697 0
-1375 890 0
-1376 722 0
-1376 836 0
-1376 -840 898 0
-1376 -840 -737 0
-1376 -840 -794 0
-1376 -678 0
-1376 -845 905 0
-1376 -845 -744 0
-1376 -845 -800 0
-1376 -685 0
-1376 -850 912 0
-1376 -850 -751 0
-1376 -850 -806 0
-1376 -692 0
-1376 885 0
-1377 722 0
-1377 836 837 0
-1377 -840 898 0
-1377 -840 -738 0
-1377 -840 -794 0
-1377 -840 -795 0
-1377 -679 0
-1377 -845 905 0
-1377 -845 -745 0
-1377 -845 -800 0
-1377 -845 -801 0
-1377 -686 0
-1377 -850 912 0
-1377 -850 -752 0
-1377 -850 -806 0
-1377 -850 -807 0
-1377 -693 0
-1377 886 0
-1378 722 0
-1378 836 837 838 0
-1378 -840 898 0
-1378 -840 -739 0
-1378 -840 -795 0
-1378 -840 -796 0
-1378 -680 0
-1378 -845 905 0
-1378 -845 -746 0
-1378 -845 -801 0
-1378 -845 -802 0
-1378 -687 0
-1378 -850 912 0
-1378 -850 -753 0
-1378 -850 -807 0
-1378 -850 -808 0
-1378 -694 0
-1378 887 0
-1379 722 0
-1379 837 838 839 0
-1379 -840 898 0
-1379 -840 -740 0
-1379 -840 -796 0
-1379 -840 -797 0
-1379 -681 0
-1379 -845 905 0
-1379 -845 -747 0
-1379 -845 -802 0
-1379 -845 -803 0
-1379 -688 0
-1379 -850 912 0
-1379 -850 -754 0
-1379 -850 -808 0
-1379 -850 -809 0
-1379 -695 0
-1379 888 0
-1380 722 0
-1380 838 839 0
-1380 -840 898 0
-1380 -840 -741 0
-1380 -840 -797 0
-1380 -840 -798 0
-1380 -682 0
-1380 -845 905 0
-1380 -845 -748 0
-1380 -845 -803 0
-1380 -845 -804 0
-1380 -689 0
-1380 -850 912 0
-1380 -850 -755 0
-1380 -850 -809 0
-1380 -850 -810 0
-1380 -696 0
-1380 889 0
-1381 722 0
-1381 839 0
-1381 -840 898 0
-1381 -840 -742 0
-1381 -840 -798 0
-1381 -683 0
-1381 -845 905 0
-1381 -845 -749 0
-1381 -845 -804 0
-1381 -690 0
-1381 -850 912 0
-1381 -850 -756 0
-1381 -850 -810 0
-1381 -697 0
-1381 890 0
-1382 781 0
-1382 -730 0
-1382 -671 0
-1382 -788 0
-1382 -841 0
-1382 944 0
-1382 950 0
-1383 781 0
-1383 -731 0
-1383 -672 0
-1383 -788 0
-1383 -789 0
-1383 -841 0
-1383 -842 0
-1383 945 0
-1383 950 0
-1384 781 0
-1384 -732 0
-1384 -673 0
-1384 -789 0
-1384 -790 0
-1384 -841 0
-1384 -842 0
-1384 -843 0
-1384 946 0
-1384 950 0
-1385 781 0
-1385 -733 0
-1385 -674 0
-1385 -790 0
-1385 -791 0
-1385 -842 0
-1385 -843 0
-1385 -844 0
-1385 947 0
-1385 950 0
-1386 781 0
-1386 -734 0
-1386 -675 0
-1386 -791 0
-1386 -792 0
-1386 -843 0
-1386 -844 0
-1386 948 0
-1386 950 0
-1387 781 0
-1387 -735 0
-1387 -676 0
-1387 -792 0
-1387 -844 0
-1387 949 0
-1387 950 0
-1388 781 0
-1388 664 0
-1388 -670 957 0
-1388 -670 -794 0
-1388 -670 -846 0
-1388 -737 0
-1388 -677 964 0
-1388 -677 -800 0
-1388 -677 -851 0
-1388 -744 0
-1388 -684 971 0
-1388 -684 -806 0
-1388 -684 -856 0
-1388 -751 0
-1388 944 0
-1389 781 0
-1389 665 0
-1389 -670 957 0
-1389 -670 -794 0
-1389 -670 -795 0
-1389 -670 -846 0
-1389 -670 -847 0
-1389 -738 0
-1389 -677 964 0
-1389 -677 -800 0
-1389 -677 -801 0
-1389 -677 -851 0
-1389 -677 -852 0
-1389 -745 0
-1389 -684 971 0
-1389 -684 -806 0
-1389 -684 -807 0
-1389 -684 -856 0
-1389 -684 -857 0
-1389 -752 0
-1389 945 0
-1390 781 0
-1390 666 0
-1390 -670 957 0
-1390 -670 -795 0
-1390 -670 -796 0
-1390 -670 -846 0
-1390 -670 -847 0
-1390 -670 -848 0
-1390 -739 0
-1390 -677 964 0
-1390 -677 -801 0
-1390 -677 -802 0
-1390 -677 -851 0
-1390 -677 -852 0
-1390 -677 -853 0
-1390 -746 0
-1390 -684 971 0
-1390 -684 -807 0
-1390 -684 -808 0
-1390 -684 -856 0
-1390 -684 -857 0
-1390 -684 -858 0
-1390 -753 0
-1390 946 0
-1391 781 0
-1391 667 0
-1391 -670 957 0
-1391 -670 -796 0
-1391 -670 -797 0
-1391 -670 -847 0
-1391 -670 -848 0
-1391 -670 -849 0
-1391 -740 0
-1391 -677 964 0
-1391 -677 -802 0
-1391 -677 -803 0
-1391 -677 -852 0
-1391 -677 -853 0
-1391 -677 -854 0
-1391 -747 0
-1391 -684 971 0
-1391 -684 -808 0
-1391 -684 -809 0
-1391 -684 -857 0
-1391 -684 -858 0
-1391 -684 -859 0
-1391 -754 0
-1391 947 0
-1392 781 0
-1392 668 0
-1392 -670 957 0
-1392 -670 -797 0
-1392 -670 -798 0
-1392 -670 -848 0
-1392 -670 -849 0
-1392 -741 0
-1392 -677 964 0
-1392 -677 -803 0
-1392 -677 -804 0
-1392 -677 -853 0
-1392 -677 -854 0
-1392 -748 0
-1392 -684 971 0
-1392 -684 -809 0
-1392 -684 -810 0
-1392 -684 -858 0
-1392 -684 -859 0
-1392 -755 0
-1392 948 0
-1393 781 0
-1393 669 0
-1393 -670 957 0
-1393 -670 -798 0
-1393 -670 -849 0
-1393 -742 0
-1393 -677 964 0
-1393 -677 -804 0
-1393 -677 -854 0
-1393 -749 0
-1393 -684 971 0
-1393 -684 -810 0
-1393 -684 -859 0
-1393 -756 0
-1393 949 0
-1394 781 0
-1394 782 0
-1394 -787 957 0
-1394 -787 -678 0
-1394 -787 -846 0
-1394 -737 0
-1394 -793 964 0
-1394 -793 -685 0
-1394 -793 -851 0
-1394 -744 0
-1394 -799 971 0
-1394 -799 -692 0
-1394 -799 -856 0
-1394 -751 0
-1394 944 0
-1395 781 0
-1395 782 783 0
-1395 -787 957 0
-1395 -787 -679 0
-1395 -787 -846 0
-1395 -787 -847 0
-1395 -738 0
-1395 -793 964 0
-1395 -793 -686 0
-1395 -793 -851 0
-1395 -793 -852 0
-1395 -745 0
-1395 -799 971 0
-1395 -799 -693 0
-1395 -799 -856 0
-1395 -799 -857 0
-1395 -752 0
-1395 945 0
-1396 781 0
-1396 783 784 0
-1396 -787 957 0
-1396 -787 -680 0
-1396 -787 -846 0
-1396 -787 -847 0
-1396 -787 -848 0
-1396 -739 0
-1396 -793 964 0
-1396 -793 -687 0
-1396 -793 -851 0
-1396 -793 -852 0
-1396 -793 -853 0
-1396 -746 0
-1396 -799 971 0
-1396 -799 -694 0
-1396 -799 -856 0
-1396 -799 -857 0
-1396 -799 -858 0
-1396 -753 0
-1396 946 0
-1397 781 0
-1397 784 785 0
-1397 -787 957 0
-1397 -787 -681 0
-1397 -787 -847 0
-1397 -787 -848 0
-1397 -787 -849 0
-1397 -740 0
-1397 -793 964 0
-1397 -793 -688 0
-1397 -793 -852 0
-1397 -793 -853 0
-1397 -793 -854 0
-1397 -747 0
-1397 -799 971 0
-1397 -799 -695 0
-1397 -799 -857 0
-1397 -799 -858 0
-1397 -799 -859 0
-1397 -754 0
-1397 947 0
-1398 781 0
-1398 785 786 0
-1398 -787 957 0
-1398 -787 -682 0
-1398 -787 -848 0
-1398 -787 -849 0
-1398 -741 0
-1398 -793 964 0
-1398 -793 -689 0
-1398 -793 -853 0
-1398 -793 -854 0
-1398 -748 0
-1398 -799 971 0
-1398 -799 -696 0
-1398 -799 -858 0
-1398 -799 -859 0
-1398 -755 0
-1398 948 0
-1399 781 0
-1399 786 0
-1399 -787 957 0
-1399 -787 -683 0
-1399 -787 -849 0
-1399 -742 0
-1399 -793 964 0
-1399 -793 -690 0
-1399 -793 -854 0
-1399 -749 0
-1399 -799 971 0
-1399 -799 -697 0
-1399 -799 -859 0
-1399 -756 0
-1399 949 0
-1400 781 0
-1400 836 0
-1400 -840 957 0
-1400 -840 -678 0
-1400 -840 -794 0
-1400 -737 0
-1400 -845 964 0
-1400 -845 -685 0
-1400 -845 -800 0
-1400 -744 0
-1400 -850 971 0
-1400 -850 -692 0
-1400 -850 -806 0
-1400 -751 0
-1400 944 0
-1401 781 0
-1401 836 837 0
-1401 -840 957 0
-1401 -840 -679 0
-1401 -840 -794 0
-1401 -840 -795 0
-1401 -738 0
-1401 -845 964 0
-1401 -845 -686 0
-1401 -845 -800 0
-1401 -845 -801 0
-1401 -745 0
-1401 -850 971 0
-1401 -850 -693 0
-1401 -850 -806 0
-1401 -850 -807 0
-1401 -752 0
-1401 945 0
-1402 781 0
-1402 836 837 838 0
-1402 -840 957 0
-1402 -840 -680 0
-1402 -840 -795 0
-1402 -840 -796 0
-1402 -739 0
-1402 -845 964 0
-1402 -845 -687 0
-1402 -845 -801 0
-1402 -845 -802 0
-1402 -746 0
-1402 -850 971 0
-1402 -850 -694 0
-1402 -850 -807 0
-1402 -850 -808 0
-1402 -753 0
-1402 946 0
-1403 781 0
-1403 837 838 839 0
-1403 -840 957 0
-1403 -840 -681 0
-1403 -840 -796 0
-1403 -840 -797 0
-1403 -740 0
-1403 -845 964 0
-1403 -845 -688 0
-1403 -845 -802 0
-1403 -845 -803 0
-1403 -747 0
-1403 -850 971 0
-1403 -850 -695 0
-1403 -850 -808 0
-1403 -850 -809 0
-1403 -754 0
-1403 947 0
-1404 781 0
-1404 838 839 0
-1404 -840 957 0
-1404 -840 -682 0
-1404 -840 -797 0
-1404 -840 -798 0
-1404 -741 0
-1404 -845 964 0
-1404 -845 -689 0
-1404 -845 -803 0
-1404 -845 -804 0
-1404 -748 0
-1404 -850 971 0
-1404 -850 -696 0
-1404 -850 -809 0
-1404 -850 -810 0
-1404 -755 0
-1404 948 0
-1405 781 0
-1405 839 0
-1405 -840 957 0
-1405 -840 -683 0
-1405 -840 -798 0
-1405 -742 0
-1405 -845 964 0
-1405 -845 -690 0
-1405 -845 -804 0
-1405 -749 0
-1405 -850 971 0
-1405 -850 -697 0
-1405 -850 -810 0
-1405 -756 0
-1405 949 0
-1406 835 0
-1406 -788 0
-1406 -671 0
-1406 -672 0
-1406 -730 0
-1406 -731 0
-1406 -841 0
-1406 -842 0
-1406 1003 0
-1406 1008 0
-1407 835 0
-1407 -789 0
-1407 -672 0
-1407 -673 0
-1407 -731 0
-1407 -732 0
-1407 -841 0
-1407 -842 0
-1407 -843 0
-1407 1004 0
-1407 1008 0
-1408 835 0
-1408 -790 0
-1408 -673 0
-1408 -674 0
-1408 -732 0
-1408 -733 0
-1408 -841 0
-1408 -842 0
-1408 -843 0
-1408 -844 0
-1408 1005 0
-1408 1008 0
-1409 835 0
-1409 -791 0
-1409 -674 0
-1409 -675 0
-1409 -733 0
-1409 -734 0
-1409 -842 0
-1409 -843 0
-1409 -844 0
-1409 1006 0
-1409 1008 0
-1410 835 0
-1410 -792 0
-1410 -675 0
-1410 -676 0
-1410 -734 0
-1410 -735 0
-1410 -843 0
-1410 -844 0
-1410 1007 0
-1410 1008 0
-1411 835 0
-1411 664 665 0
-1411 -670 1014 0
-1411 -670 -737 0
-1411 -670 -738 0
-1411 -670 -846 0
-1411 -670 -847 0
-1411 -794 0
-1411 -677 1020 0
-1411 -677 -744 0
-1411 -677 -745 0
-1411 -677 -851 0
-1411 -677 -852 0
-1411 -800 0
-1411 -684 1026 0
-1411 -684 -751 0
-1411 -684 -752 0
-1411 -684 -856 0
-1411 -684 -857 0
-1411 -806 0
-1411 1003 0
-1412 835 0
-1412 665 666 0
-1412 -670 1014 0
-1412 -670 -738 0
-1412 -670 -739 0
-1412 -670 -846 0
-1412 -670 -847 0
-1412 -670 -848 0
-1412 -795 0
-1412 -677 1020 0
-1412 -677 -745 0
-1412 -677 -746 0
-1412 -677 -851 0
-1412 -677 -852 0
-1412 -677 -853 0
-1412 -801 0
-1412 -684 1026 0
-1412 -684 -752 0
-1412 -684 -753 0
-1412 -684 -856 0
-1412 -684 -857 0
-1412 -684 -858 0
-1412 -807 0
-1412 1004 0
-1413 835 0
-1413 666 667 0
-1413 -670 1014 0
-1413 -670 -739 0
-1413 -670 -740 0
-1413 -670 -846 0
-1413 -670 -847 0
-1413 -670 -848 0
-1413 -670 -849 0
-1413 -796 0
-1413 -677 1020 0
-1413 -677 -746 0
-1413 -677 -747 0
-1413 -677 -851 0
-1413 -677 -852 0
-1413 -677 -853 0
-1413 -677 -854 0
-1413 -802 0
-1413 -684 1026 0
-1413 -684 -753 0
-1413 -684 -754 0
-1413 -684 -856 0
-1413 -684 -857 0
-1413 -684 -858 0
-1413 -684 -859 0
-1413 -808 0
-1413 1005 0
-1414 835 0
-1414 667 668 0
-1414 -670 1014 0
-1414 -670 -740 0
-1414 -670 -741 0
-1414 -670 -847 0
-1414 -670 -848 0
-1414 -670 -849 0
-1414 -797 0
-1414 -677 1020 0
-1414 -677 -747 0
-1414 -677 -748 0
-1414 -677 -852 0
-1414 -677 -853 0
-1414 -677 -854 0
-1414 -803 0
-1414 -684 1026 0
-1414 -684 -754 0
-1414 -684 -755 0
-1414 -684 -857 0
-1414 -684 -858 0
-1414 -684 -859 0
-1414 -809 0
-1414 1006 0
-1415 835 0
-1415 668 669 0
-1415 -670 1014 0
-1415 -670 -741 0
-1415 -670 -742 0
-1415 -670 -848 0
-1415 -670 -849 0
-1415 -798 0
-1415 -677 1020 0
-1415 -677 -748 0
-1415 -677 -749 0
-1415 -677 -853 0
-1415 -677 -854 0
-1415 -804 0
-1415 -684 1026 0
-1415 -684 -755 0
-1415 -684 -756 0
-1415 -684 -858 0
-1415 -684 -859 0
-1415 -810 0
-1415 1007 0
-1416 835 0
-1416 723 724 0
-1416 -729 1014 0
-1416 -729 -678 0
-1416 -729 -679 0
-1416 -729 -846 0
-1416 -729 -847 0
-1416 -794 0
-1416 -736 1020 0
-1416 -736 -685 0
-1416 -736 -686 0
-1416 -736 -851 0
-1416 -736 -852 0
-1416 -800 0
-1416 -743 1026 0
-1416 -743 -692 0
-1416 -743 -693 0
-1416 -743 -856 0
-1416 -743 -857 0
-1416 -806 0
-1416 1003 0
-1417 835 0
-1417 724 725 0
-1417 -729 1014 0
-1417 -729 -679 0
-1417 -729 -680 0
-1417 -729 -846 0
-1417 -729 -847 0
-1417 -729 -848 0
-1417 -795 0
-1417 -736 1020 0
-1417 -736 -686 0
-1417 -736 -687 0
-1417 -736 -851 0
-1417 -736 -852 0
-1417 -736 -853 0
-1417 -801 0
-1417 -743 1026 0
-1417 -743 -693 0
-1417 -743 -694 0
-1417 -743 -856 0
-1417 -743 -857 0
-1417 -743 -858 0
-1417 -807 0
-1417 1004 0
-1418 835 0
-1418 725 726 0
-1418 -729 1014 0
-1418 -729 -680 0
-1418 -729 -681 0
-1418 -729 -846 0
-1418 -729 -847 0
-1418 -729 -848 0
-1418 -729 -849 0
-1418 -796 0
-1418 -736 1020 0
-1418 -736 -687 0
-1418 -736 -688 0
-1418 -736 -851 0
-1418 -736 -852 0
-1418 -736 -853 0
-1418 -736 -854 0
-1418 -802 0
-1418 -743 1026 0
-1418 -743 -694 0
-1418 -743 -695 0
-1418 -743 -856 0
-1418 -743 -857 0
-1418 -743 -858 0
-1418 -743 -859 0
-1418 -808 0
-1418 1005 0
-1419 835 0
-1419 726 727 0
-1419 -729 1014 0
-1419 -729 -681 0
-1419 -729 -682 0
-1419 -729 -847 0
-1419 -729 -848 0
-1419 -729 -849 0
-1419 -797 0
-1419 -736 1020 0
-1419 -736 -688 0
-1419 -736 -689 0
-1419 -736 -852 0
-1419 -736 -853 0
-1419 -736 -854 0
-1419 -803 0
-1419 -743 1026 0
-1419 -743 -695 0
-1419 -743 -696 0
-1419 -743 -857 0
-1419 -743 -858 0
-1419 -743 -859 0
-1419 -809 0
-1419 1006 0
-1420 835 0
-1420 727 728 0
-1420 -729 1014 0
-1420 -729 -682 0
-1420 -729 -683 0
-1420 -729 -848 0
-1420 -729 -849 0
-1420 -798 0
-1420 -736 1020 0
-1420 -736 -689 0
-1420 -736 -690 0
-1420 -736 -853 0
-1420 -736 -854 0
-1420 -804 0
-1420 -743 1026 0
-1420 -743 -696 0
-1420 -743 -697 0
-1420 -743 -858 0
-1420 -743 -859 0
-1420 -810 0
-1420 1007 0
-1421 835 0
-1421 836 837 0
-1421 -840 1014 0
-1421 -840 -678 0
-1421 -840 -679 0
-1421 -840 -737 0
-1421 -840 -738 0
-1421 -794 0
-1421 -845 1020 0
-1421 -845 -685 0
-1421 -845 -686 0
-1421 -845 -744 0
-1421 -845 -745 0
-1421 -800 0
-1421 -850 1026 0
-1421 -850 -692 0
-1421 -850 -693 0
-1421 -850 -751 0
-1421 -850 -752 0
-1421 -806 0
-1421 1003 0
-1422 835 0
-1422 836 837 838 0
-1422 -840 1014 0
-1422 -840 -679 0
-1422 -840 -680 0
-1422 -840 -738 0
-1422 -840 -739 0
-1422 -795 0
-1422 -845 1020 0
-1422 -845 -686 0
-1422 -845 -687 0
-1422 -845 -745 0
-1422 -845 -746 0
-1422 -801 0
-1422 -850 1026 0
-1422 -850 -693 0
-1422 -850 -694 0
-1422 -850 -752 0
-1422 -850 -753 0
-1422 -807 0
-1422 1004 0
-1423 835 0
-1423 836 837 838 839 0
-1423 -840 1014 0
-1423 -840 -680 0
-1423 -840 -681 0
-1423 -840 -739 0
-1423 -840 -740 0
-1423 -796 0
-1423 -845 1020 0
-1423 -845 -687 0
-1423 -845 -688 0
-1423 -845 -746 0
-1423 -845 -747 0
-1423 -802 0
-1423 -850 1026 0
-1423 -850 -694 0
-1423 -850 -695 0
-1423 -850 -753 0
-1423 -850 -754 0
-1423 -808 0
-1423 1005 0
-1424 835 0
-1424 837 838 839 0
-1424 -840 1014 0
-1424 -840 -681 0
-1424 -840 -682 0
-1424 -840 -740 0
-1424 -840 -741 0
-1424 -797 0
-1424 -845 1020 0
-1424 -845 -688 0
-1424 -845 -689 0
-1424 -845 -747 0
-1424 -845 -748 0
-1424 -803 0
-1424 -850 1026 0
-1424 -850 -695 0
-1424 -850 -696 0
-1424 -850 -754 0
-1424 -850 -755 0
-1424 -809 0
-1424 1006 0
-1425 835 0
-1425 838 839 0
-1425 -840 1014 0
-1425 -840 -682 0
-1425 -840 -683 0
-1425 -840 -741 0
-1425 -840 -742 0
-1425 -798 0
-1425 -845 1020 0
-1425 -845 -689 0
-1425 -845 -690 0
-1425 -845 -748 0
-1425 -845 -749 0
-1425 -804 0
-1425 -850 1026 0
-1425 -850 -696 0
-1425 -850 -697 0
-1425 -850 -755 0
-1425 -850 -756 0
-1425 -810 0
-1425 1007 0
-1426 884 0
-1426 -841 0
-1426 -671 0
-1426 -672 0
-1426 -673 0
-1426 -730 0
-1426 -731 0
-1426 -732 0
-1426 -788 0
-1426 -789 0
-1426 -790 0
-1426 1057 0
-1426 1061 0
-1427 884 0
-1427 -842 0
-1427 -672 0
-1427 -673 0
-1427 -674 0
-1427 -731 0
-1427 -732 0
-1427 -733 0
-1427 -788 0
-1427 -789 0
-1427 -790 0
-1427 -791 0
-1427 1058 0
-1427 1061 0
-1428 884 0
-1428 -843 0
-1428 -673 0
-1428 -674 0
-1428 -675 0
-1428 -732 0
-1428 -733 0
-1428 -734 0
-1428 -789 0
-1428 -790 0
-1428 -791 0
-1428 -792 0
-1428 1059 0
-1428 1061 0
-1429 884 0
-1429 -844 0
-1429 -674 0
-1429 -675 0
-1429 -676 0
-1429 -733 0
-1429 -734 0
-1429 -735 0
-1429 -790 0
-1429 -791 0
-1429 -792 0
-1429 1060 0
-1429 1061 0
-1430 884 0
-1430 664 665 666 0
-1430 -670 1066 0
-1430 -670 -737 0
-1430 -670 -738 0
-1430 -670 -739 0
-1430 -670 -794 0
-1430 -670 -795 0
-1430 -670 -796 0
-1430 -846 0
-1430 -677 1071 0
-1430 -677 -744 0
-1430 -677 -745 0
-1430 -677 -746 0
-1430 -677 -800 0
-1430 -677 -801 0
-1430 -677 -802 0
-1430 -851 0
-1430 -684 1076 0
-1430 -684 -751 0
-1430 -684 -752 0
-1430 -684 -753 0
-1430 -684 -806 0
-1430 -684 -807 0
-1430 -684 -808 0
-1430 -856 0
-1430 1057 0
-1431 884 0
-1431 665 666 667 0
-1431 -670 1066 0
-1431 -670 -738 0
-1431 -670 -739 0
-1431 -670 -740 0
-1431 -670 -794 0
-1431 -670 -795 0
-1431 -670 -796 0
-1431 -670 -797 0
-1431 -847 0
-1431 -677 1071 0
-1431 -677 -745 0
-1431 -677 -746 0
-1431 -677 -747 0
-1431 -677 -800 0
-1431 -677 -801 0
-1431 -677 -802 0
-1431 -677 -803 0
-1431 -852 0
-1431 -684 1076 0
-1431 -684 -752 0
-1431 -684 -753 0
-1431 -684 -754 0
-1431 -684 -806 0
-1431 -684 -807 0
-1431 -684 -808 0
-1431 -684 -809 0
-1431 -857 0
-1431 1058 0
-1432 884 0
-1432 666 667 668 0
-1432 -670 1066 0
-1432 -670 -739 0
-1432 -670 -740 0
-1432 -670 -741 0
-1432 -670 -795 0
-1432 -670 -796 0
-1432 -670 -797 0
-1432 -670 -798 0
-1432 -848 0
-1432 -677 1071 0
-1432 -677 -746 0
-1432 -677 -747 0
-1432 -677 -748 0
-1432 -677 -801 0
-1432 -677 -802 0
-1432 -677 -803 0
-1432 -677 -804 0
-1432 -853 0
-1432 -684 1076 0
-1432 -684 -753 0
-1432 -684 -754 0
-1432 -684 -755 0
-1432 -684 -807 0
-1432 -684 -808 0
-1432 -684 -809 0
-1432 -684 -810 0
-1432 -858 0
-1432 1059 0
-1433 884 0
-1433 667 668 669 0
-1433 -670 1066 0
-1433 -670 -740 0
-1433 -670 -741 0
-1433 -670 -742 0
-1433 -670 -796 0
-1433 -670 -797 0
-1433 -670 -798 0
-1433 -849 0
-1433 -677 1071 0
-1433 -677 -747 0
-1433 -677 -748 0
-1433 -677 -749 0
-1433 -677 -802 0
-1433 -677 -803 0
-1433 -677 -804 0
-1433 -854 0
-1433 -684 1076 0
-1433 -684 -754 0
-1433 -684 -755 0
-1433 -684 -756 0
-1433 -684 -808 0
-1433 -684 -809 0
-1433 -684 -810 0
-1433 -859 0
-1433 1060 0
-1434 884 0
-1434 723 724 725 0
-1434 -729 1066 0
-1434 -729 -678 0
-1434 -729 -679 0
-1434 -729 -680 0
-1434 -729 -794 0
-1434 -729 -795 0
-1434 -729 -796 0
-1434 -846 0
-1434 -736 1071 0
-1434 -736 -685 0
-1434 -736 -686 0
-1434 -736 -687 0
-1434 -736 -800 0
-1434 -736 -801 0
-1434 -736 -802 0
-1434 -851 0
-1434 -743 1076 0
-1434 -743 -692 0
-1434 -743 -693 0
-1434 -743 -694 0
-1434 -743 -806 0
-1434 -743 -807 0
-1434 -743 -808 0
-1434 -856 0
-1434 1057 0
-1435 884 0
-1435 724 725 726 0
-1435 -729 1066 0
-1435 -729 -679 0
-1435 -729 -680 0
-1435 -729 -681 0
-1435 -729 -794 0
-1435 -729 -795 0
-1435 -729 -796 0
-1435 -729 -797 0
-1435 -847 0
-1435 -736 1071 0
-1435 -736 -686 0
-1435 -736 -687 0
-1435 -736 -688 0
-1435 -736 -800 0
-1435 -736 -801 0
-1435 -736 -802 0
-1435 -736 -803 0
-1435 -852 0
-1435 -743 1076 0
-1435 -743 -693 0
-1435 -743 -694 0
-1435 -743 -695 0
-1435 -743 -806 0
-1435 -743 -807 0
-1435 -743 -808 0
-1435 -743 -809 0
-1435 -857 0
-1435 1058 0
-1436 884 0
-1436 725 726 727 0
-1436 -729 1066 0
-1436 -729 -680 0
-1436 -729 -681 0
-1436 -729 -682 0
-1436 -729 -795 0
-1436 -729 -796 0
-1436 -729 -797 0
-1436 -729 -798 0
-1436 -848 0
-1436 -736 1071 0
-1436 -736 -687 0
-1436 -736 -688 0
-1436 -736 -689 0
-1436 -736 -801 0
-1436 -736 -802 0
-1436 -736 -803 0
-1436 -736 -804 0
-1436 -853 0
-1436 -743 1076 0
-1436 -743 -694 0
-1436 -743 -695 0
-1436 -743 -696 0
-1436 -743 -807 0
-1436 -743 -808 0
-1436 -743 -809 0
-1436 -743 -810 0
-1436 -858 0
-1436 1059 0
-1437 884 0
-1437 726 727 728 0
-1437 -729 1066 0
-1437 -729 -681 0
-1437 -729 -682 0
-1437 -729 -683 0
-1437 -729 -796 0
-1437 -729 -797 0
-1437 -729 -798 0
-1437 -849 0
-1437 -736 1071 0
-1437 -736 -688 0
-1437 -736 -689 0
-1437 -736 -690 0
-1437 -736 -802 0
-1437 -736 -803 0
-1437 -736 -804 0
-1437 -854 0
-1437 -743 1076 0
-1437 -743 -695 0
-1437 -743 -696 0
-1437 -743 -697 0
-1437 -743 -808 0
-1437 -743 -809 0
-1437 -743 -810 0
-1437 -859 0
-1437 1060 0
-1438 884 0
-1438 782 783 784 0
-1438 -787 1066 0
-1438 -787 -678 0
-1438 -787 -679 0
-1438 -787 -680 0
-1438 -787 -737 0
-1438 -787 -738 0
-1438 -787 -739 0
-1438 -846 0
-1438 -793 1071 0
-1438 -793 -685 0
-1438 -793 -686 0
-1438 -793 -687 0
-1438 -793 -744 0
-1438 -793 -745 0
-1438 -793 -746 0
-1438 -851 0
-1438 -799 1076 0
-1438 -799 -692 0
-1438 -799 -693 0
-1438 -799 -694 0
-1438 -799 -751 0
-1438 -799 -752 0
-1438 -799 -753 0
-1438 -856 0
-1438 1057 0
-1439 884 0
-1439 782 783 784 785 0
-1439 -787 1066 0
-1439 -787 -679 0
-1439 -787 -680 0
-1439 -787 -681 0
-1439 -787 -738 0
-1439 -787 -739 0
-1439 -787 -740 0
-1439 -847 0
-1439 -793 1071 0
-1439 -793 -686 0
-1439 -793 -687 0
-1439 -793 -688 0
-1439 -793 -745 0
-1439 -793 -746 0
-1439 -793 -747 0
-1439 -852 0
-1439 -799 1076 0
-1439 -799 -693 0
-1439 -799 -694 0
-1439 -799 -695 0
-1439 -799 -752 0
-1439 -799 -753 0
-1439 -799 -754 0
-1439 -857 0
-1439 1058 0
-1440 884 0
-1440 783 784 785 786 0
-1440 -787 1066 0
-1440 -787 -680 0
-1440 -787 -681 0
-1440 -787 -682 0
-1440 -787 -739 0
-1440 -787 -740 0
-1440 -787 -741 0
-1440 -848 0
-1440 -793 1071 0
-1440 -793 -687 0
-1440 -793 -688 0
-1440 -793 -689 0
-1440 -793 -746 0
-1440 -793 -747 0
-1440 -793 -748 0
-1440 -853 0
-1440 -799 1076 0
-1440 -799 -694 0
-1440 -799 -695 0
-1440 -799 -696 0
-1440 -799 -753 0
-1440 -799 -754 0
-1440 -799 -755 0
-1440 -858 0
-1440 1059 0
-1441 884 0
-1441 784 785 786 0
-1441 -787 1066 0
-1441 -787 -681 0
-1441 -787 -682 0
-1441 -787 -683 0
-1441 -787 -740 0
-1441 -787 -741 0
-1441 -787 -742 0
-1441 -849 0
-1441 -793 1071 0
-1441 -793 -688 0
-1441 -793 -689 0
-1441 -793 -690 0
-1441 -793 -747 0
-1441 -793 -748 0
-1441 -793 -749 0
-1441 -854 0
-1441 -799 1076 0
-1441 -799 -695 0
-1441 -799 -696 0
-1441 -799 -697 0
-1441 -799 -754 0
-1441 -799 -755 0
-1441 -799 -756 0
-1441 -859 0
-1441 1060 0
1106 1107 1108 1109 1110 1111 1112 1113 1114 1115 1116 1117 1118 1119 1120 1121 1122 1123 1124 1125 1126 1127 1128 1129 -1 222 0
1106 1107 1108 1109 1110 1111 1112 1113 1114 1115 1116 1117 1118 1119 1120 1121 1122 1123 1124 1125 1126 1127 1128 1129 -222 1 0
1106 1107 1108 1109 1110 1111 1112 1113 1114 1115 1116 1117 1118 1119 1120 1121 1122 1123 1124 1125 1126 1127 1128 1129 -2 223 0
1106 1107 1108 1109 1110 1111 1112 1113 1114 1115 1116 1117 1118 1119 1120 1121 1122 1123 1124 1125 1126 1127 1128 1129 -223 2 0
1106 1107 1108 1109 1110 1111 1112 1113 1114 1115 1116 1117 1118 1119 1120 1121 1122 1123 1124 1125 1126 1127 1128 1129 -3 224 0
1106 1107 1108 1109 1110 1111 1112 1113 1114 1115 1116 1117 1118 1119 1120 1121 1122 1123 1124 1125 1126 1127 1128 1129 -224 3 0
1106 1107 1108 1109 1110 1111 1112 1113 1114 1115 1116 1117 1118 1119 1120 1121 1122 1123 1124 1125 1126 1127 1128 1129 -4 225 0
1106 1107 1108 1109 1110 1111 1112 1113 1114 1115 1116 1117 1118 1119 1120 1121 1122 1123 1124 1125 1126 1127 1128 1129 -225 4 0
1106 1107 1108 1109 1110 1111 1112 1113 1114 1115 1116 1117 1118 1119 1120 1121 1122 1123 1124 1125 1126 1127 1128 1129 -5 226 0
1106 1107 1108 1109 1110 1111 1112 1113 1114 1115 1116 1117 1118 1119 1120 1121 1122 1123 1124 1125 1126 1127 1128 1129 -226 5 0
1106 1107 1108 1109 1110 1111 1112 1113 1114 1115 1116 1117 1118 1119 1120 1121 1122 1123 1124 1125 1126 1127 1128 1129 -6 227 0
1106 1107 1108 1109 1110 1111 1112 1113 1114 1115 1116 1117 1118 1119 1120 1121 1122 1123 1124 1125 1126 1127 1128 1129 -227 6 0
1106 1107 1108 1109 1110 1111 1112 1113 1114 1115 1116 1117 1118 1119 1120 1121 1122 1123 1124 1125 1126 1127 1128 1129 -7 228 0
1106 1107 1108 1109 1110 1111 1112 1113 1114 1115 1116 1117 1118 1119 1120 1121 1122 1123 1124 1125 1126 1127 1128 1129 -228 7 0
1106 1107 1108 1109 1110 1111 1112 1113 1114 1115 1116 1117 1118 1119 1120 1121 1122 1123 1124 1125 1126 1127 1128 1129 -14 235 0
1106 1107 1108 1109 1110 1111 1112 1113 1114 1115 1116 1117 1118 1119 1120 1121 1122 1123 1124 1125 1126 1127 1128 1129 -235 14 0
1106 1107 1108 1109 1110 1111 1112 1113 1114 1115 1116 1117 1118 1119 1120 1121 1122 1123 1124 1125 1126 1127 1128 1129 -21 242 0
1106 1107 1108 1109 1110 1111 1112 1113 1114 1115 1116 1117 1118 1119 1120 1121 1122 1123 1124 1125 1126 1127 1128 1129 -242 21 0
1106 1107 1108 1109 1110 1111 1112 1113 1114 1115 1116 1117 1118 1119 1120 1121 1122 1123 1124 1125 1126 1127 1128 1129 -28 249 0
1106 1107 1108 1109 1110 1111 1112 1113 1114 1115 1116 1117 1118 1119 1120 1121 1122 1123 1124 1125 1126 1127 1128 1129 -249 28 0
1130 1131 1132 1133 1134 1135 1136 1137 1138 1139 1140 1141 1142 1143 1144 1145 1146 1147 1148 1149 1150 1151 1152 1153 -60 281 0
1130 1131 1132 1133 1134 1135 1136 1137 1138 1139 1140 1141 1142 1143 1144 1145 1146 1147 1148 1149 1150 1151 1152 1153 -281 60 0
1130 1131 1132 1133 1134 1135 1136 1137 1138 1139 1140 1141 1142 1143 1144 1145 1146 1147 1148 1149 1150 1151 1152 1153 -61 282 0
1130 1131 1132 1133 1134 1135 1136 1137 1138 1139 1140 1141 1142 1143 1144 1145 1146 1147 1148 1149 1150 1151 1152 1153 -282 61 0
1130 1131 1132 1133 1134 1135 1136 1137 1138 1139 1140 1141 1142 1143 1144 1145 1146 1147 1148 1149 1150 1151 1152 1153 -62 283 0
1130 1131 1132 1133 1134 1135 1136 1137 1138 1139 1140 1141 1142 1143 1144 1145 1146 1147 1148 1149 1150 1151 1152 1153 -283 62 0
1130 1131 1132 1133 1134 1135 1136 1137 1138 1139 1140 1141 1142 1143 1144 1145 1146 1147 1148 1149 1150 1151 1152 1153 -63 284 0
1130 1131 1132 1133 1134 1135 1136 1137 1138 1139 1140 1141 1142 1143 1144 1145 1146 1147 1148 1149 1150 1151 1152 1153 -284 63 0
1130 1131 1132 1133 1134 1135 1136 1137 1138 1139 1140 1141 1142 1143 1144 1145 1146 1147 1148 1149 1150 1151 1152 1153 -64 285 0
1130 1131 1132 1133 1134 1135 1136 1137 1138 1139 1140 1141 1142 1143 1144 1145 1146 1147 1148 1149 1150 1151 1152 1153 -285 64 0
1130 1131 1132 1133 1134 1135 1136 1137 1138 1139 1140 1141 1142 1143 1144 1145 1146 1147 1148 1149 1150 1151 1152 1153 -65 286 0
1130 1131 1132 1133 1134 1135 1136 1137 1138 1139 1140 1141 1142 1143 1144 1145 1146 1147 1148 1149 1150 1151 1152 1153 -286 65 0
1130 1131 1132 1133 1134 1135 1136 1137 1138 1139 1140 1141 1142 1143 1144 1145 1146 1147 1148 1149 1150 1151 1152 1153 -66 287 0
1130 1131 1132 1133 1134 1135 1136 1137 1138 1139 1140 1141 1142 1143 1144 1145 1146 1147 1148 1149 1150 1151 1152 1153 -287 66 0
1130 1131 1132 1133 1134 1135 1136 1137 1138 1139 1140 1141 1142 1143 1144 1145 1146 1147 1148 1149 1150 1151 1152 1153 -73 294 0
1130 1131 1132 1133 1134 1135 1136 1137 1138 1139 1140 1141 1142 1143 1144 1145 1146 1147 1148 1149 1150 1151 1152 1153 -294 73 0
1130 1131 1132 1133 1134 1135 1136 1137 1138 1139 1140 1141 1142 1143 1144 1145 1146 1147 1148 1149 1150 1151 1152 1153 -80 301 0
1130 1131 1132 1133 1134 1135 1136 1137 1138 1139 1140 1141 1142 1143 1144 1145 1146 1147 1148 1149 1150 1151 1152 1153 -301 80 0
1130 1131 1132 1133 1134 1135 1136 1137 1138 1139 1140 1141 1142 1143 1144 1145 1146 1147 1148 1149 1150 1151 1152 1153 -87 308 0
1130 1131 1132 1133 1134 1135 1136 1137 1138 1139 1140 1141 1142 1143 1144 1145 1146 1147 1148 1149 1150 1151 1152 1153 -308 87 0
1154 1155 1156 1157 1158 1159 1160 1161 1162 1163 1164 1165 1166 1167 1168 1169 1170 1171 1172 1173 -119 340 0
1154 1155 1156 1157 1158 1159 1160 1161 1162 1163 1164 1165 1166 1167 1168 1169 1170 1171 1172 1173 -340 119 0
1154 1155 1156 1157 1158 1159 1160 1161 1162 1163 1164 1165 1166 1167 1168 1169 1170 1171 1172 1173 -120 341 0
1154 1155 1156 1157 1158 1159 1160 1161 1162 1163 1164 1165 1166 1167 1168 1169 1170 1171 1172 1173 -341 120 0
1154 1155 1156 1157 1158 1159 1160 1161 1162 1163 1164 1165 1166 1167 1168 1169 1170 1171 1172 1173 -121 342 0
1154 1155 1156 1157 1158 1159 1160 1161 1162 1163 1164 1165 1166 1167 1168 1169 1170 1171 1172 1173 -342 121 0
1154 1155 1156 1157 1158 1159 1160 1161 1162 1163 1164 1165 1166 1167 1168 1169 1170 1171 1172 1173 -122 343 0
1154 1155 1156 1157 1158 1159 1160 1161 1162 1163 1164 1165 1166 1167 1168 1169 1170 1171 1172 1173 -343 122 0
1154 1155 1156 1157 1158 1159 1160 1161 1162 1163 1164 1165 1166 1167 1168 1169 1170 1171 1172 1173 -123 344 0
1154 1155 1156 1157 1158 1159 1160 1161 1162 1163 1164 1165 1166 1167 1168 1169 1170 1171 1172 1173 -344 123 0
1154 1155 1156 1157 1158 1159 1160 1161 1162 1163 1164 1165 1166 1167 1168 1169 1170 1171 1172 1173 -124 345 0
1154 1155 1156 1157 1158 1159 1160 1161 1162 1163 1164 1165 1166 1167 1168 1169 1170 1171 1172 1173 -345 124 0
1154 1155 1156 1157 1158 1159 1160 1161 1162 1163 1164 1165 1166 1167 1168 1169 1170 1171 1172 1173 -130 351 0
1154 1155 1156 1157 1158 1159 1160 1161 1162 1163 1164 1165 1166 1167 1168 1169 1170 1171 1172 1173 -351 130 0
1154 1155 1156 1157 1158 1159 1160 1161 1162 1163 1164 1165 1166 1167 1168 1169 1170 1171 1172 1173 -136 357 0
1154 1155 1156 1157 1158 1159 1160 1161 1162 1163 1164 1165 1166 1167 1168 1169 1170 1171 1172 1173 -357 136 0
1154 1155 1156 1157 1158 1159 1160 1161 1162 1163 1164 1165 1166 1167 1168 1169 1170 1171 1172 1173 -142 363 0
1154 1155 1156 1157 1158 1159 1160 1161 1162 1163 1164 1165 1166 1167 1168 1169 1170 1171 1172 1173 -363 142 0
1174 1175 1176 1177 1178 1179 1180 1181 1182 1183 1184 1185 1186 1187 1188 1189 -173 394 0
1174 1175 1176 1177 1178 1179 1180 1181 1182 1183 1184 1185 1186 1187 1188 1189 -394 173 0
1174 1175 1176 1177 1178 1179 1180 1181 1182 1183 1184 1185 1186 1187 1188 1189 -174 395 0
1174 1175 1176 1177 1178 1179 1180 1181 1182 1183 1184 1185 1186 1187 1188 1189 -395 174 0
1174 1175 1176 1177 1178 1179 1180 1181 1182 1183 1184 1185 1186 1187 1188 1189 -175 396 0
1174 1175 1176 1177 1178 1179 1180 1181 1182 1183 1184 1185 1186 1187 1188 1189 -396 175 0
1174 1175 1176 1177 1178 1179 1180 1181 1182 1183 1184 1185 1186 1187 1188 1189 -176 397 0
1174 1175 1176 1177 1178 1179 1180 1181 1182 1183 1184 1185 1186 1187 1188 1189 -397 176 0
1174 1175 1176 1177 1178 1179 1180 1181 1182 1183 1184 1185 1186 1187 1188 1189 -177 398 0
1174 1175 1176 1177 1178 1179 1180 1181 1182 1183 1184 1185 1186 1187 1188 1189 -398 177 0
1174 1175 1176 1177 1178 1179 1180 1181 1182 1183 1184 1185 1186 1187 1188 1189 -182 403 0
1174 1175 1176 1177 1178 1179 1180 1181 1182 1183 1184 1185 1186 1187 1188 1189 -403 182 0
1174 1175 1176 1177 1178 1179 1180 1181 1182 1183 1184 1185 1186 1187 1188 1189 -187 408 0
1174 1175 1176 1177 1178 1179 1180 1181 1182 1183 1184 1185 1186 1187 1188 1189 -408 187 0
1174 1175 1176 1177 1178 1179 1180 1181 1182 1183 1184 1185 1186 1187 1188 1189 -192 413 0
1174 1175 1176 1177 1178 1179 1180 1181 1182 1183 1184 1185 1186 1187 1188 1189 -413 192 0
1190 1191 1192 1193 1194 1195 1196 1197 1198 1199 1200 1201 1202 1203 1204 1205 1206 1207 1208 1209 1210 1211 1212 1213 -222 443 0
1190 1191 1192 1193 1194 1195 1196 1197 1198 1199 1200 1201 1202 1203 1204 1205 1206 1207 1208 1209 1210 1211 1212 1213 -443 222 0
1190 1191 1192 1193 1194 1195 1196 1197 1198 1199 1200 1201 1202 1203 1204 1205 1206 1207 1208 1209 1210 1211 1212 1213 -223 444 0
1190 1191 1192 1193 1194 1195 1196 1197 1198 1199 1200 1201 1202 1203 1204 1205 1206 1207 1208 1209 1210 1211 1212 1213 -444 223 0
1190 1191 1192 1193 1194 1195 1196 1197 1198 1199 1200 1201 1202 1203 1204 1205 1206 1207 1208 1209 1210 1211 1212 1213 -224 445 0
1190 1191 1192 1193 1194 1195 1196 1197 1198 1199 1200 1201 1202 1203 1204 1205 1206 1207 1208 1209 1210 1211 1212 1213 -445 224 0
1190 1191 1192 1193 1194 1195 1196 1197 1198 1199 1200 1201 1202 1203 1204 1205 1206 1207 1208 1209 1210 1211 1212 1213 -225 446 0
1190 1191 1192 1193 1194 1195 1196 1197 1198 1199 1200 1201 1202 1203 1204 1205 1206 1207 1208 1209 1210 1211 1212 1213 -446 225 0
1190 1191 1192 1193 1194 1195 1196 1197 1198 1199 1200 1201 1202 1203 1204 1205 1206 1207 1208 1209 1210 1211 1212 1213 -226 447 0
1190 1191 1192 1193 1194 1195 1196 1197 1198 1199 1200 1201 1202 1203 1204 1205 1206 1207 1208 1209 1210 1211 1212 1213 -447 226 0
1190 1191 1192 1193 1194 1195 1196 1197 1198 1199 1200 1201 1202 1203 1204 1205 1206 1207 1208 1209 1210 1211 1212 1213 -227 448 0
1190 1191 1192 1193 1194 1195 1196 1197 1198 1199 1200 1201 1202 1203 1204 1205 1206 1207 1208 1209 1210 1211 1212 1213 -448 227 0
1190 1191 1192 1193 1194 1195 1196 1197 1198 1199 1200 1201 1202 1203 1204 1205 1206 1207 1208 1209 1210 1211 1212 1213 -228 449 0
1190 1191 1192 1193 1194 1195 1196 1197 1198 1199 1200 1201 1202 1203 1204 1205 1206 1207 1208 1209 1210 1211 1212 1213 -449 228 0
1190 1191 1192 1193 1194 1195 1196 1197 1198 1199 1200 1201 1202 1203 1204 1205 1206 1207 1208 1209 1210 1211 1212 1213 -235 456 0
1190 1191 1192 1193 1194 1195 1196 1197 1198 1199 1200 1201 1202 1203 1204 1205 1206 1207 1208 1209 1210 1211 1212 1213 -456 235 0
1190 1191 1192 1193 1194 1195 1196 1197 1198 1199 1200 1201 1202 1203 1204 1205 1206 1207 1208 1209 1210 1211 1212 1213 -242 463 0
1190 1191 1192 1193 1194 1195 1196 1197 1198 1199 1200 1201 1202 1203 1204 1205 1206 1207 1208 1209 1210 1211 1212 1213 -463 242 0
1190 1191 1192 1193 1194 1195 1196 1197 1198 1199 1200 1201 1202 1203 1204 1205 1206 1207 1208 1209 1210 1211 1212 1213 -249 470 0
1190 1191 1192 1193 1194 1195 1196 1197 1198 1199 1200 1201 1202 1203 1204 1205 1206 1207 1208 1209 1210 1211 1212 1213 -470 249 0
1214 1215 1216 1217 1218 1219 1220 1221 1222 1223 1224 1225 1226 1227 1228 1229 1230 1231 1232 1233 1234 1235 1236 1237 -281 502 0
1214 1215 1216 1217 1218 1219 1220 1221 1222 1223 1224 1225 1226 1227 1228 1229 1230 1231 1232 1233 1234 1235 1236 1237 -502 281 0
1214 1215 1216 1217 1218 1219 1220 1221 1222 1223 1224 1225 1226 1227 1228 1229 1230 1231 1232 1233 1234 1235 1236 1237 -282 503 0
1214 1215 1216 1217 1218 1219 1220 1221 1222 1223 1224 1225 1226 1227 1228 1229 1230 1231 1232 1233 1234 1235 1236 1237 -503 282 0
1214 1215 1216 1217 1218 1219 1220 1221 1222 1223 1224 1225 1226 1227 1228 1229 1230 1231 1232 1233 1234 1235 1236 1237 -283 504 0
1214 1215 1216 1217 1218 1219 1220 1221 1222 1223 1224 1225 1226 1227 1228 1229 1230 1231 1232 1233 1234 1235 1236 1237 -504 283 0
1214 1215 1216 1217 1218 1219 1220 1221 1222 1223 1224 1225 1226 1227 1228 1229 1230 1231 1232 1233 1234 1235 1236 1237 -284 505 0
1214 1215 1216 1217 1218 1219 1220 1221 1222 1223 1224 1225 1226 1227 1228 1229 1230 1231 1232 1233 1234 1235 1236 1237 -505 284 0
1214 1215 1216 1217 1218 1219 1220 1221 1222 1223 1224 1225 1226 1227 1228 1229 1230 1231 1232 1233 1234 1235 1236 1237 -285 506 0
1214 1215 1216 1217 1218 1219 1220 1221 1222 1223 1224 1225 1226 1227 1228 1229 1230 1231 1232 1233 1234 1235 1236 1237 -506 285 0
1214 1215 1216 1217 1218 1219 1220 1221 1222 1223 1224 1225 1226 1227 1228 1229 1230 1231 1232 1233 1234 1235 1236 1237 -286 507 0
1214 1215 1216 1217 1218 1219 1220 1221 1222 1223 1224 1225 1226 1227 1228 1229 1230 1231 1232 1233 1234 1235 1236 1237 -507 286 0
1214 1215 1216 1217 1218 1219 1220 1221 1222 1223 1224 1225 1226 1227 1228 1229 1230 1231 1232 1233 1234 1235 1236 1237 -287 508 0
1214 1215 1216 1217 1218 1219 1220 1221 1222 1223 1224 1225 1226 1227 1228 1229 1230 1231 1232 1233 1234 1235 1236 1237 -508 287 0
1214 1215 1216 1217 1218 1219 1220 1221 1222 1223 1224 1225 1226 1227 1228 1229 1230 1231 1232 1233 1234 1235 1236 1237 -294 515 0
1214 1215 1216 1217 1218 1219 1220 1221 1222 1223 1224 1225 1226 1227 1228 1229 1230 1231 1232 1233 1234 1235 1236 1237 -515 294 0
1214 1215 1216 1217 1218 1219 1220 1221 1222 1223 1224 1225 1226 1227 1228 1229 1230 1231 1232 1233 1234 1235 1236 1237 -301 522 0
1214 1215 1216 1217 1218 1219 1220 1221 1222 1223 1224 1225 1226 1227 1228 1229 1230 1231 1232 1233 1234 1235 1236 1237 -522 301 0
1214 1215 1216 1217 1218 1219 1220 1221 1222 1223 1224 1225 1226 1227 1228 1229 1230 1231 1232 1233 1234 1235 1236 1237 -308 529 0
1214 1215 1216 1217 1218 1219 1220 1221 1222 1223 1224 1225 1226 1227 1228 1229 1230 1231 1232 1233 1234 1235 1236 1237 -529 308 0
1238 1239 1240 1241 1242 1243 1244 1245 1246 1247 1248 1249 1250 1251 1252 1253 1254 1255 1256 1257 -340 561 0
1238 1239 1240 1241 1242 1243 1244 1245 1246 1247 1248 1249 1250 1251 1252 1253 1254 1255 1256 1257 -561 340 0
1238 1239 1240 1241 1242 1243 1244 1245 1246 1247 1248 1249 1250 1251 1252 1253 1254 1255 1256 1257 -341 562 0
1238 1239 1240 1241 1242 1243 1244 1245 1246 1247 1248 1249 1250 1251 1252 1253 1254 1255 1256 1257 -562 341 0
1238 1239 1240 1241 1242 1243 1244 1245 1246 1247 1248 1249 1250 1251 1252 1253 1254 1255 1256 1257 -342 563 0
1238 1239 1240 1241 1242 1243 1244 1245 1246 1247 1248 1249 1250 1251 1252 1253 1254 1255 1256 1257 -563 342 0
1238 1239 1240 1241 1242 1243 1244 1245 1246 1247 1248 1249 1250 1251 1252 1253 1254 1255 1256 1257 -343 564 0
1238 1239 1240 1241 1242 1243 1244 1245 1246 1247 1248 1249 1250 1251 1252 1253 1254 1255 1256 1257 -564 343 0
1238 1239 1240 1241 1242 1243 1244 1245 1246 1247 1248 1249 1250 1251 1252 1253 1254 1255 1256 1257 -344 565 0
1238 1239 1240 1241 1242 1243 1244 1245 1246 1247 1248 1249 1250 1251 1252 1253 1254 1255 1256 1257 -565 344 0
1238 1239 1240 1241 1242 1243 1244 1245 1246 1247 1248 1249 1250 1251 1252 1253 1254 1255 1256 1257 -345 566 0
1238 1239 1240 1241 1242 1243 1244 1245 1246 1247 1248 1249 1250 1251 1252 1253 1254 1255 1256 1257 -566 345 0
1238 1239 1240 1241 1242 1243 1244 1245 1246 1247 1248 1249 1250 1251 1252 1253 1254 1255 1256 1257 -351 572 0
1238 1239 1240 1241 1242 1243 1244 1245 1246 1247 1248 1249 1250 1251 1252 1253 1254 1255 1256 1257 -572 351 0
1238 1239 1240 1241 1242 1243 1244 1245 1246 1247 1248 1249 1250 1251 1252 1253 1254 1255 1256 1257 -357 578 0
1238 1239 1240 1241 1242 1243 1244 1245 1246 1247 1248 1249 1250 1251 1252 1253 1254 1255 1256 1257 -578 357 0
1238 1239 1240 1241 1242 1243 1244 1245 1246 1247 1248 1249 1250 1251 1252 1253 1254 1255 1256 1257 -363 584 0
1238 1239 1240 1241 1242 1243 1244 1245 1246 1247 1248 1249 1250 1251 1252 1253 1254 1255 1256 1257 -584 363 0
1258 1259 1260 1261 1262 1263 1264 1265 1266 1267 1268 1269 1270 1271 1272 1273 -394 615 0
1258 1259 1260 1261 1262 1263 1264 1265 1266 1267 1268 1269 1270 1271 1272 1273 -615 394 0
1258 1259 1260 1261 1262 1263 1264 1265 1266 1267 1268 1269 1270 1271 1272 1273 -395 616 0
1258 1259 1260 1261 1262 1263 1264 1265 1266 1267 1268 1269 1270 1271 1272 1273 -616 395 0
1258 1259 1260 1261 1262 1263 1264 1265 1266 1267 1268 1269 1270 1271 1272 1273 -396 617 0
1258 1259 1260 1261 1262 1263 1264 1265 1266 1267 1268 1269 1270 1271 1272 1273 -617 396 0
1258 1259 1260 1261 1262 1263 1264 1265 1266 1267 1268 1269 1270 1271 1272 1273 -397 618 0
1258 1259 1260 1261 1262 1263 1264 1265 1266 1267 1268 1269 1270 1271 1272 1273 -618 397 0
1258 1259 1260 1261 1262 1263 1264 1265 1266 1267 1268 1269 1270 1271 1272 1273 -398 619 0
1258 1259 1260 1261 1262 1263 1264 1265 1266 1267 1268 1269 1270 1271 1272 1273 -619 398 0
1258 1259 1260 1261 1262 1263 1264 1265 1266 1267 1268 1269 1270 1271 1272 1273 -403 624 0
1258 1259 1260 1261 1262 1263 1264 1265 1266 1267 1268 1269 1270 1271 1272 1273 -624 403 0
1258 1259 1260 1261 1262 1263 1264 1265 1266 1267 1268 1269 1270 1271 1272 1273 -408 629 0
1258 1259 1260 1261 1262 1263 1264 1265 1266 1267 1268 1269 1270 1271 1272 1273 -629 408 0
1258 1259 1260 1261 1262 1263 1264 1265 1266 1267 1268 1269 1270 1271 1272 1273 -413 634 0
1258 1259 1260 1261 1262 1263 1264 1265 1266 1267 1268 1269 1270 1271 1272 1273 -634 413 0
1274 1275 1276 1277 1278 1279 1280 1281 1282 1283 1284 1285 1286 1287 1288 1289 1290 1291 1292 1293 1294 1295 1296 1297 -443 664 0
1274 1275 1276 1277 1278 1279 1280 1281 1282 1283 1284 1285 1286 1287 1288 1289 1290 1291 1292 1293 1294 1295 1296 1297 -664 443 0
1274 1275 1276 1277 1278 1279 1280 1281 1282 1283 1284 1285 1286 1287 1288 1289 1290 1291 1292 1293 1294 1295 1296 1297 -444 665 0
1274 1275 1276 1277 1278 1279 1280 1281 1282 1283 1284 1285 1286 1287 1288 1289 1290 1291 1292 1293 1294 1295 1296 1297 -665 444 0
1274 1275 1276 1277 1278 1279 1280 1281 1282 1283 1284 1285 1286 1287 1288 1289 1290 1291 1292 1293 1294 1295 1296 1297 -445 666 0
1274 1275 1276 1277 1278 1279 1280 1281 1282 1283 1284 1285 1286 1287 1288 1289 1290 1291 1292 1293 1294 1295 1296 1297 -666 445 0
1274 1275 1276 1277 1278 1279 1280 1281 1282 1283 1284 1285 1286 1287 1288 1289 1290 1291 1292 1293 1294 1295 1296 1297 -446 667 0
1274 1275 1276 1277 1278 1279 1280 1281 1282 1283 1284 1285 1286 1287 1288 1289 1290 1291 1292 1293 1294 1295 1296 1297 -667 446 0
1274 1275 1276 1277 1278 1279 1280 1281 1282 1283 1284 1285 1286 1287 1288 1289 1290 1291 1292 1293 1294 1295 1296 1297 -447 668 0
1274 1275 1276 1277 1278 1279 1280 1281 1282 1283 1284 1285 1286 1287 1288 1289 1290 1291 1292 1293 1294 1295 1296 1297 -668 447 0
1274 1275 1276 1277 1278 1279 1280 1281 1282 1283 1284 1285 1286 1287 1288 1289 1290 1291 1292 1293 1294 1295 1296 1297 -448 669 0
1274 1275 1276 1277 1278 1279 1280 1281 1282 1283 1284 1285 1286 1287 1288 1289 1290 1291 1292 1293 1294 1295 1296 1297 -669 448 0
1274 1275 1276 1277 1278 1279 1280 1281 1282 1283 1284 1285 1286 1287 1288 1289 1290 1291 1292 1293 1294 1295 1296 1297 -449 670 0
1274 1275 1276 1277 1278 1279 1280 1281 1282 1283 1284 1285 1286 1287 1288 1289 1290 1291 1292 1293 1294 1295 1296 1297 -670 449 0
1274 1275 1276 1277 1278 1279 1280 1281 1282 1283 1284 1285 1286 1287 1288 1289 1290 1291 1292 1293 1294 1295 1296 1297 -456 677 0
1274 1275 1276 1277 1278 1279 1280 1281 1282 1283 1284 1285 1286 1287 1288 1289 1290 1291 1292 1293 1294 1295 1296 1297 -677 456 0
1274 1275 1276 1277 1278 1279 1280 1281 1282 1283 1284 1285 1286 1287 1288 1289 1290 1291 1292 1293 1294 1295 1296 1297 -463 684 0
1274 1275 1276 1277 1278 1279 1280 1281 1282 1283 1284 1285 1286 1287 1288 1289 1290 1291 1292 1293 1294 1295 1296 1297 -684 463 0
1274 1275 1276 1277 1278 1279 1280 1281 1282 1283 1284 1285 1286 1287 1288 1289 1290 1291 1292 1293 1294 1295 1296 1297 -470 691 0
1274 1275 1276 1277 1278 1279 1280 1281 1282 1283 1284 1285 1286 1287 1288 1289 1290 1291 1292 1293 1294 1295 1296 1297 -691 470 0
1298 1299 1300 1301 1302 1303 1304 1305 1306 1307 1308 1309 1310 1311 1312 1313 1314 1315 1316 1317 1318 1319 1320 1321 -502 723 0
1298 1299 1300 1301 1302 1303 1304 1305 1306 1307 1308 1309 1310 1311 1312 1313 1314 1315 1316 1317 1318 1319 1320 1321 -723 502 0
1298 1299 1300 1301 1302 1303 1304 1305 1306 1307 1308 1309 1310 1311 1312 1313 1314 1315 1316 1317 1318 1319 1320 1321 -503 724 0
1298 1299 1300 1301 1302 1303 1304 1305 1306 1307 1308 1309 1310 1311 1312 1313 1314 1315 1316 1317 1318 1319 1320 1321 -724 503 0
1298 1299 1300 1301 1302 1303 1304 1305 1306 1307 1308 1309 1310 1311 1312 1313 1314 1315 1316 1317 1318 1319 1320 1321 -504 725 0
1298 1299 1300 1301 1302 1303 1304 1305 1306 1307 1308 1309 1310 1311 1312 1313 1314 1315 1316 1317 1318 1319 1320 1321 -725 504 0
1298 1299 1300 1301 1302 1303 1304 1305 1306 1307 1308 1309 1310 1311 1312 1313 1314 1315 1316 1317 1318 1319 1320 1321 -505 726 0
1298 1299 1300 1301 1302 1303 1304 1305 1306 1307 1308 1309 1310 1311 1312 1313 1314 1315 1316 1317 1318 1319 1320 1321 -726 505 0
1298 1299 1300 1301 1302 1303 1304 1305 1306 1307 1308 1309 1310 1311 1312 1313 1314 1315 1316 1317 1318 1319 1320 1321 -506 727 0
1298 1299 1300 1301 1302 1303 1304 1305 1306 1307 1308 1309 1310 1311 1312 1313 1314 1315 1316 1317 1318 1319 1320 1321 -727 506 0
1298 1299 1300 1301 1302 1303 1304 1305 1306 1307 1308 1309 1310 1311 1312 1313 1314 1315 1316 1317 1318 1319 1320 1321 -507 728 0
1298 1299 1300 1301 1302 1303 1304 1305 1306 1307 1308 1309 1310 1311 1312 1313 1314 1315 1316 1317 1318 1319 1320 1321 -728 507 0
1298 1299 1300 1301 1302 1303 1304 1305 1306 1307 1308 1309 1310 1311 1312 1313 1314 1315 1316 1317 1318 1319 1320 1321 -508 729 0
1298 1299 1300 1301 1302 1303 1304 1305 1306 1307 1308 1309 1310 1311 1312 1313 1314 1315 1316 1317 1318 1319 1320 1321 -729 508 0
1298 1299 1300 1301 1302 1303 1304 1305 1306 1307 1308 1309 1310 1311 1312 1313 1314 1315 1316 1317 1318 1319 1320 1321 -515 736 0
1298 1299 1300 1301 1302 1303 1304 1305 1306 1307 1308 1309 1310 1311 1312 1313 1314 1315 1316 1317 1318 1319 1320 1321 -736 515 0
1298 1299 1300 1301 1302 1303 1304 1305 1306 1307 1308 1309 1310 1311 1312 1313 1314 1315 1316 1317 1318 1319 1320 1321 -522 743 0
1298 1299 1300 1301 1302 1303 1304 1305 1306 1307 1308 1309 1310 1311 1312 1313 1314 1315 1316 1317 1318 1319 1320 1321 -743 522 0
1298 1299 1300 1301 1302 1303 1304 1305 1306 1307 1308 1309 1310 1311 1312 1313 1314 1315 1316 1317 1318 1319 1320 1321 -529 750 0
1298 1299 1300 1301 1302 1303 1304 1305 1306 1307 1308 1309 1310 1311 1312 1313 1314 1315 1316 1317 1318 1319 1320 1321 -750 529 0
1322 1323 1324 1325 1326 1327 1328 1329 1330 1331 1332 1333 1334 1335 1336 1337 1338 1339 1340 1341 -561 782 0
1322 1323 1324 1325 1326 1327 1328 1329 1330 1331 1332 1333 1334 1335 1336 1337 1338 1339 1340 1341 -782 561 0
1322 1323 1324 1325 1326 1327 1328 1329 1330 1331 1332 1333 1334 1335 1336 1337 1338 1339 1340 1341 -562 783 0
1322 1323 1324 1325 1326 1327 1328 1329 1330 1331 1332 1333 1334 1335 1336 1337 1338 1339 1340 1341 -783 562 0
1322 1323 1324 1325 1326 1327 1328 1329 1330 1331 1332 1333 1334 1335 1336 1337 1338 1339 1340 1341 -563 784 0
1322 1323 1324 1325 1326 1327 1328 1329 1330 1331 1332 1333 1334 1335 1336 1337 1338 1339 1340 1341 -784 563 0
1322 1323 1324 1325 1326 1327 1328 1329 1330 1331 1332 1333 1334 1335 1336 1337 1338 1339 1340 1341 -564 785 0
1322 1323 1324 1325 1326 1327 1328 1329 1330 1331 1332 1333 1334 1335 1336 1337 1338 1339 1340 1341 -785 564 0
1322 1323 1324 1325 1326 1327 1328 1329 1330 1331 1332 1333 1334 1335 1336 1337 1338 1339 1340 1341 -565 786 0
1322 1323 1324 1325 1326 1327 1328 1329 1330 1331 1332 1333 1334 1335 1336 1337 1338 1339 1340 1341 -786 565 0
1322 1323 1324 1325 1326 1327 1328 1329 1330 1331 1332 1333 1334 1335 1336 1337 1338 1339 1340 1341 -566 787 0
1322 1323 1324 1325 1326 1327 1328 1329 1330 1331 1332 1333 1334 1335 1336 1337 1338 1339 1340 1341 -787 566 0
1322 1323 1324 1325 1326 1327 1328 1329 1330 1331 1332 1333 1334 1335 1336 1337 1338 1339 1340 1341 -572 793 0
1322 1323 1324 1325 1326 1327 1328 1329 1330 1331 1332 1333 1334 1335 1336 1337 1338 1339 1340 1341 -793 572 0
1322 1323 1324 1325 1326 1327 1328 1329 1330 1331 1332 1333 1334 1335 1336 1337 1338 1339 1340 1341 -578 799 0
1322 1323 1324 1325 1326 1327 1328 1329 1330 1331 1332 1333 1334 1335 1336 1337 1338 1339 1340 1341 -799 578 0
1322 1323 1324 1325 1326 1327 1328 1329 1330 1331 1332 1333 1334 1335 1336 1337 1338 1339 1340 1341 -584 805 0
1322 1323 1324 1325 1326 1327 1328 1329 1330 1331 1332 1333 1334 1335 1336 1337 1338 1339 1340 1341 -805 584 0
1342 1343 1344 1345 1346 1347 1348 1349 1350 1351 1352 1353 1354 1355 1356 1357 -615 836 0
1342 1343 1344 1345 1346 1347 1348 1349 1350 1351 1352 1353 1354 1355 1356 1357 -836 615 0
1342 1343 1344 1345 1346 1347 1348 1349 1350 1351 1352 1353 1354 1355 1356 1357 -616 837 0
1342 1343 1344 1345 1346 1347 1348 1349 1350 1351 1352 1353 1354 1355 1356 1357 -837 616 0
1342 1343 1344 1345 1346 1347 1348 1349 1350 1351 1352 1353 1354 1355 1356 1357 -617 838 0
1342 1343 1344 1345 1346 1347 1348 1349 1350 1351 1352 1353 1354 1355 1356 1357 -838 617 0
1342 1343 1344 1345 1346 1347 1348 1349 1350 1351 1352 1353 1354 1355 1356 1357 -618 839 0
1342 1343 1344 1345 1346 1347 1348 1349 1350 1351 1352 1353 1354 1355 1356 1357 -839 618 0
1342 1343 1344 1345 1346 1347 1348 1349 1350 1351 1352 1353 1354 1355 1356 1357 -619 840 0
1342 1343 1344 1345 1346 1347 1348 1349 1350 1351 1352 1353 1354 1355 1356 1357 -840 619 0
1342 1343 1344 1345 1346 1347 1348 1349 1350 1351 1352 1353 1354 1355 1356 1357 -624 845 0
1342 1343 1344 1345 1346 1347 1348 1349 1350 1351 1352 1353 1354 1355 1356 1357 -845 624 0
1342 1343 1344 1345 1346 1347 1348 1349 1350 1351 1352 1353 1354 1355 1356 1357 -629 850 0
1342 1343 1344 1345 1346 1347 1348 1349 1350 1351 1352 1353 1354 1355 1356 1357 -850 629 0
1342 1343 1344 1345 1346 1347 1348 1349 1350 1351 1352 1353 1354 1355 1356 1357 -634 855 0
1342 1343 1344 1345 1346 1347 1348 1349 1350 1351 1352 1353 1354 1355 1356 1357 -855 634 0
1358 1359 1360 1361 1362 1363 1364 1365 1366 1367 1368 1369 1370 1371 1372 1373 1374 1375 1376 1377 1378 1379 1380 1381 -664 885 0
1358 1359 1360 1361 1362 1363 1364 1365 1366 1367 1368 1369 1370 1371 1372 1373 1374 1375 1376 1377 1378 1379 1380 1381 -885 664 0
1358 1359 1360 1361 1362 1363 1364 1365 1366 1367 1368 1369 1370 1371 1372 1373 1374 1375 1376 1377 1378 1379 1380 1381 -665 886 0
1358 1359 1360 1361 1362 1363 1364 1365 1366 1367 1368 1369 1370 1371 1372 1373 1374 1375 1376 1377 1378 1379 1380 1381 -886 665 0
1358 1359 1360 1361 1362 1363 1364 1365 1366 1367 1368 1369 1370 1371 1372 1373 1374 1375 1376 1377 1378 1379 1380 1381 -666 887 0
1358 1359 1360 1361 1362 1363 1364 1365 1366 1367 1368 1369 1370 1371 1372 1373 1374 1375 1376 1377 1378 1379 1380 1381 -887 666 0
1358 1359 1360 1361 1362 1363 1364 1365 1366 1367 1368 1369 1370 1371 1372 1373 1374 1375 1376 1377 1378 1379 1380 1381 -667 888 0
1358 1359 1360 1361 1362 1363 1364 1365 1366 1367 1368 1369 1370 1371 1372 1373 1374 1375 1376 1377 1378 1379 1380 1381 -888 667 0
1358 1359 1360 1361 1362 1363 1364 1365 1366 1367 1368 1369 1370 1371 1372 1373 1374 1375 1376 1377 1378 1379 1380 1381 -668 889 0
1358 1359 1360 1361 1362 1363 1364 1365 1366 1367 1368 1369 1370 1371 1372 1373 1374 1375 1376 1377 1378 1379 1380 1381 -889 668 0
1358 1359 1360 1361 1362 1363 1364 1365 1366 1367 1368 1369 1370 1371 1372 1373 1374 1375 1376 1377 1378 1379 1380 1381 -669 890 0
1358 1359 1360 1361 1362 1363 1364 1365 1366 1367 1368 1369 1370 1371 1372 1373 1374 1375 1376 1377 1378 1379 1380 1381 -890 669 0
1358 1359 1360 1361 1362 1363 1364 1365 1366 1367 1368 1369 1370 1371 1372 1373 1374 1375 1376 1377 1378 1379 1380 1381 -670 891 0
1358 1359 1360 1361 1362 1363 1364 1365 1366 1367 1368 1369 1370 1371 1372 1373 1374 1375 1376 1377 1378 1379 1380 1381 -891 670 0
1358 1359 1360 1361 1362 1363 1364 1365 1366 1367 1368 1369 1370 1371 1372 1373 1374 1375 1376 1377 1378 1379 1380 1381 -677 898 0
1358 1359 1360 1361 1362 1363 1364 1365 1366 1367 1368 1369 1370 1371 1372 1373 1374 1375 1376 1377 1378 1379 1380 1381 -898 677 0
1358 1359 1360 1361 1362 1363 1364 1365 1366 1367 1368 1369 1370 1371 1372 1373 1374 1375 1376 1377 1378 1379 1380 1381 -684 905 0
1358 1359 1360 1361 1362 1363 1364 1365 1366 1367 1368 1369 1370 1371 1372 1373 1374 1375 1376 1377 1378 1379 1380 1381 -905 684 0
1358 1359 1360 1361 1362 1363 1364 1365 1366 1367 1368 1369 1370 1371 1372 1373 1374 1375 1376 1377 1378 1379 1380 1381 -691 912 0
1358 1359 1360 1361 1362 1363 1364 1365 1366 1367 1368 1369 1370 1371 1372 1373 1374 1375 1376 1377 1378 1379 1380 1381 -912 691 0
1382 1383 1384 1385 1386 1387 1388 1389 1390 1391 1392 1393 1394 1395 1396 1397 1398 1399 1400 1401 1402 1403 1404 1405 -723 944 0
1382 1383 1384 1385 1386 1387 1388 1389 1390 1391 1392 1393 1394 1395 1396 1397 1398 1399 1400 1401 1402 1403 1404 1405 -944 723 0
1382 1383 1384 1385 1386 1387 1388 1389 1390 1391 1392 1393 1394 1395 1396 1397 1398 1399 1400 1401 1402 1403 1404 1405 -724 945 0
1382 1383 1384 1385 1386 1387 1388 1389 1390 1391 1392 1393 1394 1395 1396 1397 1398 1399 1400 1401 1402 1403 1404 1405 -945 724 0
1382 1383 1384 1385 1386 1387 1388 1389 1390 1391 1392 1393 1394 1395 1396 1397 1398 1399 1400 1401 1402 1403 1404 1405 -725 946 0
1382 1383 1384 1385 1386 1387 1388 1389 1390 1391 1392 1393 1394 1395 1396 1397 1398 1399 1400 1401 1402 1403 1404 1405 -946 725 0
1382 1383 1384 1385 1386 1387 1388 1389 1390 1391 1392 1393 1394 1395 1396 1397 1398 1399 1400 1401 1402 1403 1404 1405 -726 947 0
1382 1383 1384 1385 1386 1387 1388 1389 1390 1391 1392 1393 1394 1395 1396 1397 1398 1399 1400 1401 1402 1403 1404 1405 -947 726 0
1382 1383 1384 1385 1386 1387 1388 1389 1390 1391 1392 1393 1394 1395 1396 1397 1398 1399 1400 1401 1402 1403 1404 1405 -727 948 0
1382 1383 1384 1385 1386 1387 1388 1389 1390 1391 1392 1393 1394 1395 1396 1397 1398 1399 1400 1401 1402 1403 1404 1405 -948 727 0
1382 1383 1384 1385 1386 1387 1388 1389 1390 1391 1392 1393 1394 1395 1396 1397 1398 1399 1400 1401 1402 1403 1404 1405 -728 949 0
1382 1383 1384 1385 1386 1387 1388 1389 1390 1391 1392 1393 1394 1395 1396 1397 1398 1399 1400 1401 1402 1403 1404 1405 -949 728 0
1382 1383 1384 1385 1386 1387 1388 1389 1390 1391 1392 1393 1394 1395 1396 1397 1398 1399 1400 1401 1402 1403 1404 1405 -729 950 0
1382 1383 1384 1385 1386 1387 1388 1389 1390 1391 1392 1393 1394 1395 1396 1397 1398 1399 1400 1401 1402 1403 1404 1405 -950 729 0
1382 1383 1384 1385 1386 1387 1388 1389 1390 1391 1392 1393 1394 1395 1396 1397 1398 1399 1400 1401 1402 1403 1404 1405 -736 957 0
1382 1383 1384 1385 1386 1387 1388 1389 1390 1391 1392 1393 1394 1395 1396 1397 1398 1399 1400 1401 1402 1403 1404 1405 -957 736 0
1382 1383 1384 1385 1386 1387 1388 1389 1390 1391 1392 1393 1394 1395 1396 1397 1398 1399 1400 1401 1402 1403 1404 1405 -743 964 0
1382 1383 1384 1385 1386 1387 1388 1389 1390 1391 1392 1393 1394 1395 1396 1397 1398 1399 1400 1401 1402 1403 1404 1405 -964 743 0
1382 1383 1384 1385 1386 1387 1388 1389 1390 1391 1392 1393 1394 1395 1396 1397 1398 1399 1400 1401 1402 1403 1404 1405 -750 971 0
1382 1383 1384 1385 1386 1387 1388 1389 1390 1391 1392 1393 1394 1395 1396 1397 1398 1399 1400 1401 1402 1403 1404 1405 -971 750 0
1406 1407 1408 1409 1410 1411 1412 1413 1414 1415 1416 1417 1418 1419 1420 1421 1422 1423 1424 1425 -782 1003 0
1406 1407 1408 1409 1410 1411 1412 1413 1414 1415 1416 1417 1418 1419 1420 1421 1422 1423 1424 1425 -1003 782 0
1406 1407 1408 1409 1410 1411 1412 1413 1414 1415 1416 1417 1418 1419 1420 1421 1422 1423 1424 1425 -783 1004 0
1406 1407 1408 1409 1410 1411 1412 1413 1414 1415 1416 1417 1418 1419 1420 1421 1422 1423 1424 1425 -1004 783 0
1406 1407 1408 1409 1410 1411 1412 1413 1414 1415 1416 1417 1418 1419 1420 1421 1422 1423 1424 1425 -784 1005 0
1406 1407 1408 1409 1410 1411 1412 1413 1414 1415 1416 1417 1418 1419 1420 1421 1422 1423 1424 1425 -1005 784 0
1406 1407 1408 1409 1410 1411 1412 1413 1414 1415 1416 1417 1418 1419 1420 1421 1422 1423 1424 1425 -785 1006 0
1406 1407 1408 1409 1410 1411 1412 1413 1414 1415 1416 1417 1418 1419 1420 1421 1422 1423 1424 1425 -1006 785 0
1406 1407 1408 1409 1410 1411 1412 1413 1414 1415 1416 1417 1418 1419 1420 1421 1422 1423 1424 1425 -786 1007 0
1406 1407 1408 1409 1410 1411 1412 1413 1414 1415 1416 1417 1418 1419 1420 1421 1422 1423 1424 1425 -1007 786 0
1406 1407 1408 1409 1410 1411 1412 1413 1414 1415 1416 1417 1418 1419 1420 1421 1422 1423 1424 1425 -787 1008 0
1406 1407 1408 1409 1410 1411 1412 1413 1414 1415 1416 1417 1418 1419 1420 1421 1422 1423 1424 1425 -1008 787 0
1406 1407 1408 1409 1410 1411 1412 1413 1414 1415 1416 1417 1418 1419 1420 1421 1422 1423 1424 1425 -793 1014 0
1406 1407 1408 1409 1410 1411 1412 1413 1414 1415 1416 1417 1418 1419 1420 1421 1422 1423 1424 1425 -1014 793 0
1406 1407 1408 1409 1410 1411 1412 1413 1414 1415 1416 1417 1418 1419 1420 1421 1422 1423 1424 1425 -799 1020 0
1406 1407 1408 1409 1410 1411 1412 1413 1414 1415 1416 1417 1418 1419 1420 1421 1422 1423 1424 1425 -1020 799 0
1406 1407 1408 1409 1410 1411 1412 1413 1414 1415 1416 1417 1418 1419 1420 1421 1422 1423 1424 1425 -805 1026 0
1406 1407 1408 1409 1410 1411 1412 1413 1414 1415 1416 1417 1418 1419 1420 1421 1422 1423 1424 1425 -1026 805 0
1426 1427 1428 1429 1430 1431 1432 1433 1434 1435 1436 1437 1438 1439 1440 1441 -836 1057 0
1426 1427 1428 1429 1430 1431 1432 1433 1434 1435 1436 1437 1438 1439 1440 1441 -1057 836 0
1426 1427 1428 1429 1430 1431 1432 1433 1434 1435 1436 1437 1438 1439 1440 1441 -837 1058 0
1426 1427 1428 1429 1430 1431 1432 1433 1434 1435 1436 1437 1438 1439 1440 1441 -1058 837 0
1426 1427 1428 1429 1430 1431 1432 1433 1434 1435 1436 1437 1438 1439 1440 1441 -838 1059 0
1426 1427 1428 1429 1430 1431 1432 1433 1434 1435 1436 1437 1438 1439 1440 1441 -1059 838 0
1426 1427 1428 1429 1430 1431 1432 1433 1434 1435 1436 1437 1438 1439 1440 1441 -839 1060 0
1426 1427 1428 1429 1430 1431 1432 1433 1434 1435 1436 1437 1438 1439 1440 1441 -1060 839 0
1426 1427 1428 1429 1430 1431 1432 1433 1434 1435 1436 1437 1438 1439 1440 1441 -840 1061 0
1426 1427 1428 1429 1430 1431 1432 1433 1434 1435 1436 1437 1438 1439 1440 1441 -1061 840 0
1426 1427 1428 1429 1430 1431 1432 1433 1434 1435 1436 1437 1438 1439 1440 1441 -845 1066 0
1426 1427 1428 1429 1430 1431 1432 1433 1434 1435 1436 1437 1438 1439 1440 1441 -1066 845 0
1426 1427 1428 1429 1430 1431 1432 1433 1434 1435 1436 1437 1438 1439 1440 1441 -850 1071 0
1426 1427 1428 1429 1430 1431 1432 1433 1434 1435 1436 1437 1438 1439 1440 1441 -1071 850 0
1426 1427 1428 1429 1430 1431 1432 1433 1434 1435 1436 1437 1438 1439 1440 1441 -855 1076 0
1426 1427 1428 1429 1430 1431 1432 1433 1434 1435 1436 1437 1438 1439 1440 1441 -1076 855 0
1106 1107 1108 1109 1110 1111 1112 1113 1114 1115 1116 1117 1118 1119 1120 1121 1122 1123 1124 1125 1126 1127 1128 1129 1130 1131 1132 1133 1134 1135 1136 1137 1138 1139 1140 1141 1142 1143 1144 1145 1146 1147 1148 1149 1150 1151 1152 1153 1154 1155 1156 1157 1158 1159 1160 1161 1162 1163 1164 1165 1166 1167 1168 1169 1170 1171 1172 1173 1174 1175 1176 1177 1178 1179 1180 1181 1182 1183 1184 1185 1186 1187 1188 1189 0
-1106 -1107 0
-1106 -1108 0
-1106 -1109 0
-1106 -1110 0
-1106 -1111 0
-1106 -1112 0
-1106 -1113 0
-1106 -1114 0
-1106 -1115 0
-1106 -1116 0
-1106 -1117 0
-1106 -1118 0
-1106 -1119 0
-1106 -1120 0
-1106 -1121 0
-1106 -1122 0
-1106 -1123 0
-1106 -1124 0
-1106 -1125 0
-1106 -1126 0
-1106 -1127 0
-1106 -1128 0
-1106 -1129 0
-1106 -1130 0
-1106 -1131 0
-1106 -1132 0
-1106 -1133 0
-1106 -1134 0
-1106 -1135 0
-1106 -1136 0
-1106 -1137 0
-1106 -1138 0
-1106 -1139 0
-1106 -1140 0
-1106 -1141 0
-1106 -1142 0
-1106 -1143 0
-1106 -1144 0
-1106 -1145 0
-1106 -1146 0
-1106 -1147 0
-1106 -1148 0
-1106 -1149 0
-1106 -1150 0
-1106 -1151 0
-1106 -1152 0
-1106 -1153 0
-1106 -1154 0
-1106 -1155 0
-1106 -1156 0
-1106 -1157 0
-1106 -1158 0
-1106 -1159 0
-1106 -1160 0
-1106 -1161 0
-1106 -1162 0
-1106 -1163 0
-1106 -1164 0
-1106 -1165 0
-1106 -1166 0
-1106 -1167 0
-1106 -1168 0
-1106 -1169 0
-1106 -1170 0
-1106 -1171 0
-1106 -1172 0
-1106 -1173 0
-1106 -1174 0
-1106 -1175 0
-1106 -1176 0
-1106 -1177 0
-1106 -1178 0
-1106 -1179 0
-1106 -1180 0
-1106 -1181 0
-1106 -1182 0
-1106 -1183 0
-1106 -1184 0
-1106 -1185 0
-1106 -1186 0
-1106 -1187 0
-1106 -1188 0
-1106 -1189 0
-1107 -1108 0
-1107 -1109 0
-1107 -1110 0
-1107 -1111 0
-1107 -1112 0
-1107 -1113 0
-1107 -1114 0
-1107 -1115 0
-1107 -1116 0
-1107 -1117 0
-1107 -1118 0
-1107 -1119 0
-1107 -1120 0
-1107 -1121 0
-1107 -1122 0
-1107 -1123 0
-1107 -1124 0
-1107 -1125 0
-1107 -1126 0
-1107 -1127 0
-1107 -1128 0
-1107 -1129 0
-1107 -1130 0
-1107 -1131 0
-1107 -1132 0
-1107 -1133 0
-1107 -1134 0
-1107 -1135 0
-1107 -1136 0
-1107 -1137 0
-1107 -1138 0
-1107 -1139 0
-1107 -1140 0
-1107 -1141 0
-1107 -1142 0
-1107 -1143 0
-1107 -1144 0
-1107 -1145 0
-1107 -1146 0
-1107 -1147 0
-1107 -1148 0
-1107 -1149 0
-1107 -1150 0
-1107 -1151 0
-1107 -1152 0
-1107 -1153 0
-1107 -1154 0
-1107 -1155 0
-1107 -1156 0
-1107 -1157 0
-1107 -1158 0
-1107 -1159 0
-1107 -1160 0
-1107 -1161 0
-1107 -1162 0
-1107 -1163 0
-1107 -1164 0
-1107 -1165 0
-1107 -1166 0
-1107 -1167 0
-1107 -1168 0
-1107 -1169 0
-1107 -1170 0
-1107 -1171 0
-1107 -1172 0
-1107 -1173 0
-1107 -1174 0
-1107 -1175 0
-1107 -1176 0
-1107 -1177 0
-1107 -1178 0
-1107 -1179 0
-1107 -1180 0
-1107 -1181 0
-1107 -1182 0
-1107 -1183 0
-1107 -1184 0
-1107 -1185 0
-1107 -1186 0
-1107 -1187 0
-1107 -1188 0
-1107 -1189 0
-1108 -1109 0
-1108 -1110 0
-1108 -1111 0
-1108 -1112 0
-1108 -1113 0
-1108 -1114 0
-1108 -1115 0
-1108 -1116 0
-1108 -1117 0
-1108 -1118 0
-1108 -1119 0
-1108 -1120 0
-1108 -1121 0
-1108 -1122 0
-1108 -1123 0
-1108 -1124 0
-1108 -1125 0
-1108 -1126 0
-1108 -1127 0
-1108 -1128 0
-1108 -1129 0
-1108 -1130 0
-1108 -1131 0
-1108 -1132 0
-1108 -1133 0
-1108 -1134 0
-1108 -1135 0
-1108 -1136 0
-1108 -1137 0
-1108 -1138 0
-1108 -1139 0
-1108 -1140 0
-1108 -1141 0
-1108 -1142 0
-1108 -1143 0
-1108 -1144 0
-1108 -1145 0
-1108 -1146 0
-1108 -1147 0
-1108 -1148 0
-1108 -1149 0
-1108 -1150 0
-1108 -1151 0
-1108 -1152 0
-1108 -1153 0
-1108 -1154 0
-1108 -1155 0
-1108 -1156 0
-1108 -1157 0
-1108 -1158 0
-1108 -1159 0
-1108 -1160 0
-1108 -1161 0
-1108 -1162 0
-1108 -1163 0
-1108 -1164 0
-1108 -1165 0
-1108 -1166 0
-1108 -1167 0
-1108 -1168 0
-1108 -1169 0
-1108 -1170 0
-1108 -1171 0
-1108 -1172 0
-1108 -1173 0
-1108 -1174 0
-1108 -1175 0
-1108 -1176 0
-1108 -1177 0
-1108 -1178 0
-1108 -1179 0
-1108 -1180 0
-1108 -1181 0
-1108 -1182 0
-1108 -1183 0
-1108 -1184 0
-1108 -1185 0
-1108 -1186 0
-1108 -1187 0
-1108 -1188 0
-1108 -1189 0
-1109 -1110 0
-1109 -1111 0
-1109 -1112 0
-1109 -1113 0
-1109 -1114 0
-1109 -1115 0
-1109 -1116 0
-1109 -1117 0
-1109 -1118 0
-1109 -1119 0
-1109 -1120 0
-1109 -1121 0
-1109 -1122 0
-1109 -1123 0
-1109 -1124 0
-1109 -1125 0
-1109 -1126 0
-1109 -1127 0
-1109 -1128 0
-1109 -1129 0
-1109 -1130 0
-1109 -1131 0
-1109 -1132 0
-1109 -1133 0
-1109 -1134 0
-1109 -1135 0
-1109 -1136 0
-1109 -1137 0
-1109 -1138 0
-1109 -1139 0
-1109 -1140 0
-1109 -1141 0
-1109 -1142 0
-1109 -1143 0
-1109 -1144 0
-1109 -1145 0
-1109 -1146 0
-1109 -1147 0
-1109 -1148 0
-1109 -1149 0
-1109 -1150 0
-1109 -1151 0
-1109 -1152 0
-1109 -1153 0
-1109 -1154 0
-1109 -1155 0
-1109 -1156 0
-1109 -1157 0
-1109 -1158 0
-1109 -1159 0
-1109 -1160 0
-1109 -1161 0
-1109 -1162 0
-1109 -1163 0
-1109 -1164 0
-1109 -1165 0
-1109 -1166 0
-1109 -1167 0
-1109 -1168 0
-1109 -1169 0
-1109 -1170 0
-1109 -1171 0
-1109 -1172 0
-1109 -1173 0
-1109 -1174 0
-1109 -1175 0
-1109 -1176 0
-1109 -1177 0
-1109 -1178 0
-1109 -1179 0
-1109 -1180 0
-1109 -1181 0
-1109 -1182 0
-1109 -1183 0
-1109 -1184 0
-1109 -1185 0
-1109 -1186 0
-1109 -1187 0
-1109 -1188 0
-1109 -1189 0
-1110 -1111 0
-1110 -1112 0
-1110 -1113 0
-1110 -1114 0
-1110 -1115 0
-1110 -1116 0
-1110 -1117 0
-1110 -1118 0
-1110 -1119 0
-1110 -1120 0
-1110 -1121 0
-1110 -1122 0
-1110 -1123 0
-1110 -1124 0
-1110 -1125 0
-1110 -1126 0
-1110 -1127 0
-1110 -1128 0
-1110 -1129 0
-1110 -1130 0
-1110 -1131 0
-1110 -1132 0
-1110 -1133 0
-1110 -1134 0
-1110 -1135 0
-1110 -1136 0
-1110 -1137 0
-1110 -1138 0
-1110 -1139 0
-1110 -1140 0
-1110 -1141 0
-1110 -1142 0
-1110 -1143 0
-1110 -1144 0
-1110 -1145 0
-1110 -1146 0
-1110 -1147 0
-1110 -1148 0
-1110 -1149 0
-1110 -1150 0
-1110 -1151 0
-1110 -1152 0
-1110 -1153 0
-1110 -1154 0
-1110 -1155 0
-1110 -1156 0
-1110 -1157 0
-1110 -1158 0
-1110 -1159 0
-1110 -1160 0
-1110 -1161 0
-1110 -1162 0
-1110 -1163 0
-1110 -1164 0
-1110 -1165 0
-1110 -1166 0
-1110 -1167 0
-1110 -1168 0
-1110 -1169 0
-1110 -1170 0
-1110 -1171 0
-1110 -1172 0
-1110 -1173 0
-1110 -1174 0
-1110 -1175 0
-1110 -1176 0
-1110 -1177 0
-1110 -1178 0
-1110 -1179 0
-1110 -1180 0
-1110 -1181 0
-1110 -1182 0
-1110 -1183 0
-1110 -1184 0
-1110 -1185 0
-1110 -1186 0
-1110 -1187 0
-1110 -1188 0
-1110 -1189 0
-1111 -1112 0
-1111 -1113 0
-1111 -1114 0
-1111 -1115 0
-1111 -1116 0
-1111 -1117 0
-1111 -1118 0
-1111 -1119 0
-1111 -1120 0
-1111 -1121 0
-1111 -1122 0
-1111 -1123 0
-1111 -1124 0
-1111 -1125 0
-1111 -1126 0
-1111 -1127 0
-1111 -1128 0
-1111 -1129 0
-1111 -1130 0
-1111 -1131 0
-1111 -1132 0
-1111 -1133 0
-1111 -1134 0
-1111 -1135 0
-1111 -1136 0
-1111 -1137 0
-1111 -1138 0
-1111 -1139 0
-1111 -1140 0
-1111 -1141 0
-1111 -1142 0
-1111 -1143 0
-1111 -1144 0
-1111 -1145 0
-1111 -1146 0
-1111 -1147 0
-1111 -1148 0
-1111 -1149 0
-1111 -1150 0
-1111 -1151 0
-1111 -1152 0
-1111 -1153 0
-1111 -1154 0
-1111 -1155 0
-1111 -1156 0
-1111 -1157 0
-1111 -1158 0
-1111 -1159 0
-1111 -1160 0
-1111 -1161 0
-1111 -1162 0
-1111 -1163 0
-1111 -1164 0
-1111 -1165 0
-1111 -1166 0
-1111 -1167 0
-1111 -1168 0
-1111 -1169 0
-1111 -1170 0
-1111 -1171 0
-1111 -1172 0
-1111 -1173 0
-1111 -1174 0
-1111 -1175 0
-1111 -1176 0
-1111 -1177 0
-1111 -1178 0
-1111 -1179 0
-1111 -1180 0
-1111 -1181 0
-1111 -1182 0
-1111 -1183 0
-1111 -1184 0
-1111 -1185 0
-1111 -1186 0
-1111 -1187 0
-1111 -1188 0
-1111 -1189 0
-1112 -1113 0
-1112 -1114 0
-1112 -1115 0
-1112 -1116 0
-1112 -1117 0
-1112 -1118 0
-1112 -1119 0
-1112 -1120 0
-1112 -1121 0
-1112 -1122 0
-1112 -1123 0
-1112 -1124 0
-1112 -1125 0
-1112 -1126 0
-1112 -1127 0
-1112 -1128 0
-1112 -1129 0
-1112 -1130 0
-1112 -1131 0
-1112 -1132 0
-1112 -1133 0
-1112 -1134 0
-1112 -1135 0
-1112 -1136 0
-1112 -1137 0
-1112 -1138 0
-1112 -1139 0
-1112 -1140 0
-1112 -1141 0
-1112 -1142 0
-1112 -1143 0
-1112 -1144 0
-1112 -1145 0
-1112 -1146 0
-1112 -1147 0
-1112 -1148 0
-1112 -1149 0
-1112 -1150 0
-1112 -1151 0
-1112 -1152 0
-1112 -1153 0
-1112 -1154 0
-1112 -1155 0
-1112 -1156 0
-1112 -1157 0
-1112 -1158 0
-1112 -1159 0
-1112 -1160 0
-1112 -1161 0
-1112 -1162 0
-1112 -1163 0
-1112 -1164 0
-1112 -1165 0
-1112 -1166 0
-1112 -1167 0
-1112 -1168 0
-1112 -1169 0
-1112 -1170 0
-1112 -1171 0
-1112 -1172 0
-1112 -1173 0
-1112 -1174 0
-1112 -1175 0
-1112 -1176 0
-1112 -1177 0
-1112 -1178 0
-1112 -1179 0
-1112 -1180 0
-1112 -1181 0
-1112 -1182 0
-1112 -1183 0
-1112 -1184 0
-1112 -1185 0
-1112 -1186 0
-1112 -1187 0
-1112 -1188 0
-1112 -1189 0
-1113 -1114 0
-1113 -1115 0
-1113 -1116 0
-1113 -1117 0
-1113 -1118 0
-1113 -1119 0
-1113 -1120 0
-1113 -1121 0
-1113 -1122 0
-1113 -1123 0
-1113 -1124 0
-1113 -1125 0
-1113 -1126 0
-1113 -1127 0
-1113 -1128 0
-1113 -1129 0
-1113 -1130 0
-1113 -1131 0
-1113 -1132 0
-1113 -1133 0
-1113 -1134 0
-1113 -1135 0
-1113 -1136 0
-1113 -1137 0
-1113 -1138 0
-1113 -1139 0
-1113 -1140 0
-1113 -1141 0
-1113 -1142 0
-1113 -1143 0
-1113 -1144 0
-1113 -1145 0
-1113 -1146 0
-1113 -1147 0
-1113 -1148 0
-1113 -1149 0
-1113 -1150 0
-1113 -1151 0
-1113 -1152 0
-1113 -1153 0
-1113 -1154 0
-1113 -1155 0
-1113 -1156 0
-1113 -1157 0
-1113 -1158 0
-1113 -1159 0
-1113 -1160 0
-1113 -1161 0
-1113 -1162 0
-1113 -1163 0
-1113 -1164 0
-1113 -1165 0
-1113 -1166 0
-1113 -1167 0
-1113 -1168 0
-1113 -1169 0
-1113 -1170 0
-1113 -1171 0
-1113 -1172 0
-1113 -1173 0
-1113 -1174 0
-1113 -1175 0
-1113 -1176 0
-1113 -1177 0
-1113 -1178 0
-1113 -1179 0
-1113 -1180 0
-1113 -1181 0
-1113 -1182 0
-1113 -1183 0
-1113 -1184 0
-1113 -1185 0
-1113 -1186 0
-1113 -1187 0
-1113 -1188 0
-1113 -1189 0
-1114 -1115 0
-1114 -1116 0
-1114 -1117 0
-1114 -1118 0
-1114 -1119 0
-1114 -1120 0
-1114 -1121 0
-1114 -1122 0
-1114 -1123 0
-1114 -1124 0
-1114 -1125 0
-1114 -1126 0
-1114 -1127 0
-1114 -1128 0
-1114 -1129 0
-1114 -1130 0
-1114 -1131 0
-1114 -1132 0
-1114 -1133 0
-1114 -1134 0
-1114 -1135 0
-1114 -1136 0
-1114 -1137 0
-1114 -1138 0
-1114 -1139 0
-1114 -1140 0
-1114 -1141 0
-1114 -1142 0
-1114 -1143 0
-1114 -1144 0
-1114 -1145 0
-1114 -1146 0
-1114 -1147 0
-1114 -1148 0
-1114 -1149 0
-1114 -1150 0
-1114 -1151 0
-1114 -1152 0
-1114 -1153 0
-1114 -1154 0
-1114 -1155 0
-1114 -1156 0
-1114 -1157 0
-1114 -1158 0
-1114 -1159 0
-1114 -1160 0
-1114 -1161 0
-1114 -1162 0
-1114 -1163 0
-1114 -1164 0
-1114 -1165 0
-1114 -1166 0
-1114 -1167 0
-1114 -1168 0
-1114 -1169 0
-1114 -1170 0
-1114 -1171 0
-1114 -1172 0
-1114 -1173 0
-1114 -1174 0
-1114 -1175 0
-1114 -1176 0
-1114 -1177 0
-1114 -1178 0
-1114 -1179 0
-1114 -1180 0
-1114 -1181 0
-1114 -1182 0
-1114 -1183 0
-1114 -1184 0
-1114 -1185 0
-1114 -1186 0
-1114 -1187 0
-1114 -1188 0
-1114 -1189 0
-1115 -1116 0
-1115 -1117 0
-1115 -1118 0
-1115 -1119 0
-1115 -1120 0
-1115 -1121 0
-1115 -1122 0
-1115 -1123 0
-1115 -1124 0
-1115 -1125 0
-1115 -1126 0
-1115 -1127 0
-1115 -1128 0
-1115 -1129 0
-1115 -1130 0
-1115 -1131 0
-1115 -1132 0
-1115 -1133 0
-1115 -1134 0
-1115 -1135 0
-1115 -1136 0
-1115 -1137 0
-1115 -1138 0
-1115 -1139 0
-1115 -1140 0
-1115 -1141 0
-1115 -1142 0
-1115 -1143 0
-1115 -1144 0
-1115 -1145 0
-1115 -1146 0
-1115 -1147 0
-1115 -1148 0
-1115 -1149 0
-1115 -1150 0
-1115 -1151 0
-1115 -1152 0
-1115 -1153 0
-1115 -1154 0
-1115 -1155 0
-1115 -1156 0
-1115 -1157 0
-1115 -1158 0
-1115 -1159 0
-1115 -1160 0
-1115 -1161 0
-1115 -1162 0
-1115 -1163 0
-1115 -1164 0
-1115 -1165 0
-1115 -1166 0
-1115 -1167 0
-1115 -1168 0
-1115 -1169 0
-1115 -1170 0
-1115 -1171 0
-1115 -1172 0
-1115 -1173 0
-1115 -1174 0
-1115 -1175 0
-1115 -1176 0
-1115 -1177 0
-1115 -1178 0
-1115 -1179 0
-1115 -1180 0
-1115 -1181 0
-1115 -1182 0
-1115 -1183 0
-1115 -1184 0
-1115 -1185 0
-1115 -1186 0
-1115 -1187 0
-1115 -1188 0
-1115 -1189 0
-1116 -1117 0
-1116 -1118 0
-1116 -1119 0
-1116 -1120 0
-1116 -1121 0
-1116 -1122 0
-1116 -1123 0
-1116 -1124 0
-1116 -1125 0
-1116 -1126 0
-1116 -1127 0
-1116 -1128 0
-1116 -1129 0
-1116 -1130 0
-1116 -1131 0
-1116 -1132 0
-1116 -1133 0
-1116 -1134 0
-1116 -1135 0
-1116 -1136 0
-1116 -1137 0
-1116 -1138 0
-1116 -1139 0
-1116 -1140 0
-1116 -1141 0
-1116 -1142 0
-1116 -1143 0
-1116 -1144 0
-1116 -1145 0
-1116 -1146 0
-1116 -1147 0
-1116 -1148 0
-1116 -1149 0
-1116 -1150 0
-1116 -1151 0
-1116 -1152 0
-1116 -1153 0
-1116 -1154 0
-1116 -1155 0
-1116 -1156 0
-1116 -1157 0
-1116 -1158 0
-1116 -1159 0
-1116 -1160 0
-1116 -1161 0
-1116 -1162 0
-1116 -1163 0
-1116 -1164 0
-1116 -1165 0
-1116 -1166 0
-1116 -1167 0
-1116 -1168 0
-1116 -1169 0
-1116 -1170 0
-1116 -1171 0
-1116 -1172 0
-1116 -1173 0
-1116 -1174 0
-1116 -1175 0
-1116 -1176 0
-1116 -1177 0
-1116 -1178 0
-1116 -1179 0
-1116 -1180 0
-1116 -1181 0
-1116 -1182 0
-1116 -1183 0
-1116 -1184 0
-1116 -1185 0
-1116 -1186 0
-1116 -1187 0
-1116 -1188 0
-1116 -1189 0
-1117 -1118 0
-1117 -1119 0
-1117 -1120 0
-1117 -1121 0
-1117 -1122 0
-1117 -1123 0
-1117 -1124 0
-1117 -1125 0
-1117 -1126 0
-1117 -1127 0
-1117 -1128 0
-1117 -1129 0
-1117 -1130 0
-1117 -1131 0
-1117 -1132 0
-1117 -1133 0
-1117 -1134 0
-1117 -1135 0
-1117 -1136 0
-1117 -1137 0
-1117 -1138 0
-1117 -1139 0
-1117 -1140 0
-1117 -1141 0
-1117 -1142 0
-1117 -1143 0
-1117 -1144 0
-1117 -1145 0
-1117 -1146 0
-1117 -1147 0
-1117 -1148 0
-1117 -1149 0
-1117 -1150 0
-1117 -1151 0
-1117 -1152 0
-1117 -1153 0
-1117 -1154 0
-1117 -1155 0
-1117 -1156 0
-1117 -1157 0
-1117 -1158 0
-1117 -1159 0
-1117 -1160 0
-1117 -1161 0
-1117 -1162 0
-1117 -1163 0
-1117 -1164 0
-1117 -1165 0
-1117 -1166 0
-1117 -1167 0
-1117 -1168 0
-1117 -1169 0
-1117 -1170 0
-1117 -1171 0
-1117 -1172 0
-1117 -1173 0
-1117 -1174 0
-1117 -1175 0
-1117 -1176 0
-1117 -1177 0
-1117 -1178 0
-1117 -1179 0
-1117 -1180 0
-1117 -1181 0
-1117 -1182 0
-1117 -1183 0
-1117 -1184 0
-1117 -1185 0
-1117 -1186 0
-1117 -1187 0
-1117 -1188 0
-1117 -1189 0
-1118 -1119 0
-1118 -1120 0
-1118 -1121 0
-1118 -1122 0
-1118 -1123 0
-1118 -1124 0
-1118 -1125 0
-1118 -1126 0
-1118 -1127 0
-1118 -1128 0
-1118 -1129 0
-1118 -1130 0
-1118 -1131 0
-1118 -1132 0
-1118 -1133 0
-1118 -1134 0
-1118 -1135 0
-1118 -1136 0
-1118 -1137 0
-1118 -1138 0
-1118 -1139 0
-1118 -1140 0
-1118 -1141 0
-1118 -1142 0
-1118 -1143 0
-1118 -1144 0
-1118 -1145 0
-1118 -1146 0
-1118 -1147 0
-1118 -1148 0
-1118 -1149 0
-1118 -1150 0
-1118 -1151 0
-1118 -1152 0
-1118 -1153 0
-1118 -1154 0
-1118 -1155 0
-1118 -1156 0
-1118 -1157 0
-1118 -1158 0
-1118 -1159 0
-1118 -1160 0
-1118 -1161 0
-1118 -1162 0
-1118 -1163 0
-1118 -1164 0
-1118 -1165 0
-1118 -1166 0
-1118 -1167 0
-1118 -1168 0
-1118 -1169 0
-1118 -1170 0
-1118 -1171 0
-1118 -1172 0
-1118 -1173 0
-1118 -1174 0
-1118 -1175 0
-1118 -1176 0
-1118 -1177 0
-1118 -1178 0
-1118 -1179 0
-1118 -1180 0
-1118 -1181 0
-1118 -1182 0
-1118 -1183 0
-1118 -1184 0
-1118 -1185 0
-1118 -1186 0
-1118 -1187 0
-1118 -1188 0
-1118 -1189 0
-1119 -1120 0
-1119 -1121 0
-1119 -1122 0
-1119 -1123 0
-1119 -1124 0
-1119 -1125 0
-1119 -1126 0
-1119 -1127 0
-1119 -1128 0
-1119 -1129 0
-1119 -1130 0
-1119 -1131 0
-1119 -1132 0
-1119 -1133 0
-1119 -1134 0
-1119 -1135 0
-1119 -1136 0
-1119 -1137 0
-1119 -1138 0
-1119 -1139 0
-1119 -1140 0
-1119 -1141 0
-1119 -1142 0
-1119 -1143 0
-1119 -1144 0
-1119 -1145 0
-1119 -1146 0
-1119 -1147 0
-1119 -1148 0
-1119 -1149 0
-1119 -1150 0
-1119 -1151 0
-1119 -1152 0
-1119 -1153 0
-1119 -1154 0
-1119 -1155 0
-1119 -1156 0
-1119 -1157 0
-1119 -1158 0
-1119 -1159 0
-1119 -1160 0
-1119 -1161 0
-1119 -1162 0
-1119 -1163 0
-1119 -1164 0
-1119 -1165 0
-1119 -1166 0
-1119 -1167 0
-1119 -1168 0
-1119 -1169 0
-1119 -1170 0
-1119 -1171 0
-1119 -1172 0
-1119 -1173 0
-1119 -1174 0
-1119 -1175 0
-1119 -1176 0
-1119 -1177 0
-1119 -1178 0
-1119 -1179 0
-1119 -1180 0
-1119 -1181 0
-1119 -1182 0
-1119 -1183 0
-1119 -1184 0
-1119 -1185 0
-1119 -1186 0
-1119 -1187 0
-1119 -1188 0
-1119 -1189 0
-1120 -1121 0
-1120 -1122 0
-1120 -1123 0
-1120 -1124 0
-1120 -1125 0
-1120 -1126 0
-1120 -1127 0
-1120 -1128 0
-1120 -1129 0
-1120 -1130 0
-1120 -1131 0
-1120 -1132 0
-1120 -1133 0
-1120 -1134 0
-1120 -1135 0
-1120 -1136 0
-1120 -1137 0
-1120 -1138 0
-1120 -1139 0
-1120 -1140 0
-1120 -1141 0
-1120 -1142 0
-1120 -1143 0
-1120 -1144 0
-1120 -1145 0
-1120 -1146 0
-1120 -1147 0
-1120 -1148 0
-1120 -1149 0
-1120 -1150 0
-1120 -1151 0
-1120 -1152 0
-1120 -1153 0
-1120 -1154 0
-1120 -1155 0
-1120 -1156 0
-1120 -1157 0
-1120 -1158 0
-1120 -1159 0
-1120 -1160 0
-1120 -1161 0
-1120 -1162 0
-1120 -1163 0
-1120 -1164 0
-1120 -1165 0
-1120 -1166 0
-1120 -1167 0
-1120 -1168 0
-1120 -1169 0
-1120 -1170 0
-1120 -1171 0
-1120 -1172 0
-1120 -1173 0
-1120 -1174 0
-1120 -1175 0
-1120 -1176 0
-1120 -1177 0
-1120 -1178 0
-1120 -1179 0
-1120 -1180 0
-1120 -1181 0
-1120 -1182 0
-1120 -1183 0
-1120 -1184 0
-1120 -1185 0
-1120 -1186 0
-1120 -1187 0
-1120 -1188 0
-1120 -1189 0
-1121 -1122 0
-1121 -1123 0
-1121 -1124 0
-1121 -1125 0
-1121 -1126 0
-1121 -1127 0
-1121 -1128 0
-1121 -1129 0
-1121 -1130 0
-1121 -1131 0
-1121 -1132 0
-1121 -1133 0
-1121 -1134 0
-1121 -1135 0
-1121 -1136 0
-1121 -1137 0
-1121 -1138 0
-1121 -1139 0
-1121 -1140 0
-1121 -1141 0
-1121 -1142 0
-1121 -1143 0
-1121 -1144 0
-1121 -1145 0
-1121 -1146 0
-1121 -1147 0
-1121 -1148 0
-1121 -1149 0
-1121 -1150 0
-1121 -1151 0
-1121 -1152 0
-1121 -1153 0
-1121 -1154 0
-1121 -1155 0
-1121 -1156 0
-1121 -1157 0
-1121 -1158 0
-1121 -1159 0
-1121 -1160 0
-1121 -1161 0
-1121 -1162 0
-1121 -1163 0
-1121 -1164 0
-1121 -1165 0
-1121 -1166 0
-1121 -1167 0
-1121 -1168 0
-1121 -1169 0
-1121 -1170 0
-1121 -1171 0
-1121 -1172 0
-1121 -1173 0
-1121 -1174 0
-1121 -1175 0
-1121 -1176 0
-1121 -1177 0
-1121 -1178 0
-1121 -1179 0
-1121 -1180 0
-1121 -1181 0
-1121 -1182 0
-1121 -1183 0
-1121 -1184 0
-1121 -1185 0
-1121 -1186 0
-1121 -1187 0
-1121 -1188 0
-1121 -1189 0
-1122 -1123 0
-1122 -1124 0
-1122 -1125 0
-1122 -1126 0
-1122 -1127 0
-1122 -1128 0
-1122 -1129 0
-1122 -1130 0
-1122 -1131 0
-1122 -1132 0
-1122 -1133 0
-1122 -1134 0
-1122 -1135 0
-1122 -1136 0
-1122 -1137 0
-1122 -1138 0
-1122 -1139 0
-1122 -1140 0
-1122 -1141 0
-1122 -1142 0
-1122 -1143 0
-1122 -1144 0
-1122 -1145 0
-1122 -1146 0
-1122 -1147 0
-1122 -1148 0
-1122 -1149 0
-1122 -1150 0
-1122 -1151 0
-1122 -1152 0
-1122 -1153 0
-1122 -1154 0
-1122 -1155 0
-1122 -1156 0
-1122 -1157 0
-1122 -1158 0
-1122 -1159 0
-1122 -1160 0
-1122 -1161 0
-1122 -1162 0
-1122 -1163 0
-1122 -1164 0
-1122 -1165 0
-1122 -1166 0
-1122 -1167 0
-1122 -1168 0
-1122 -1169 0
-1122 -1170 0
-1122 -1171 0
-1122 -1172 0
-1122 -1173 0
-1122 -1174 0
-1122 -1175 0
-1122 -1176 0
-1122 -1177 0
-1122 -1178 0
-1122 -1179 0
-1122 -1180 0
-1122 -1181 0
-1122 -1182 0
-1122 -1183 0
-1122 -1184 0
-1122 -1185 0
-1122 -1186 0
-1122 -1187 0
-1122 -1188 0
-1122 -1189 0
-1123 -1124 0
-1123 -1125 0
-1123 -1126 0
-1123 -1127 0
-1123 -1128 0
-1123 -1129 0
-1123 -1130 0
-1123 -1131 0
-1123 -1132 0
-1123 -1133 0
-1123 -1134 0
-1123 -1135 0
-1123 -1136 0
-1123 -1137 0
-1123 -1138 0
-1123 -1139 0
-1123 -1140 0
-1123 -1141 0
-1123 -1142 0
-1123 -1143 0
-1123 -1144 0
-1123 -1145 0
-1123 -1146 0
-1123 -1147 0
-1123 -1148 0
-1123 -1149 0
-1123 -1150 0
-1123 -1151 0
-1123 -1152 0
-1123 -1153 0
-1123 -1154 0
-1123 -1155 0
-1123 -1156 0
-1123 -1157 0
-1123 -1158 0
-1123 -1159 0
-1123 -1160 0
-1123 -1161 0
-1123 -1162 0
-1123 -1163 0
-1123 -1164 0
-1123 -1165 0
-1123 -1166 0
-1123 -1167 0
-1123 -1168 0
-1123 -1169 0
-1123 -1170 0
-1123 -1171 0
-1123 -1172 0
-1123 -1173 0
-1123 -1174 0
-1123 -1175 0
-1123 -1176 0
-1123 -1177 0
-1123 -1178 0
-1123 -1179 0
-1123 -1180 0
-1123 -1181 0
-1123 -1182 0
-1123 -1183 0
-1123 -1184 0
-1123 -1185 0
-1123 -1186 0
-1123 -1187 0
-1123 -1188 0
-1123 -1189 0
-1124 -1125 0
-1124 -1126 0
-1124 -1127 0
-1124 -1128 0
-1124 -1129 0
-1124 -1130 0
-1124 -1131 0
-1124 -1132 0
-1124 -1133 0
-1124 -1134 0
-1124 -1135 0
-1124 -1136 0
-1124 -1137 0
-1124 -1138 0
-1124 -1139 0
-1124 -1140 0
-1124 -1141 0
-1124 -1142 0
-1124 -1143 0
-1124 -1144 0
-1124 -1145 0
-1124 -1146 0
-1124 -1147 0
-1124 -1148 0
-1124 -1149 0
-1124 -1150 0
-1124 -1151 0
-1124 -1152 0
-1124 -1153 0
-1124 -1154 0
-1124 -1155 0
-1124 -1156 0
-1124 -1157 0
-1124 -1158 0
-1124 -1159 0
-1124 -1160 0
-1124 -1161 0
-1124 -1162 0
-1124 -1163 0
-1124 -1164 0
-1124 -1165 0
-1124 -1166 0
-1124 -1167 0
-1124 -1168 0
-1124 -1169 0
-1124 -1170 0
-1124 -1171 0
-1124 -1172 0
-1124 -1173 0
-1124 -1174 0
-1124 -1175 0
-1124 -1176 0
-1124 -1177 0
-1124 -1178 0
-1124 -1179 0
-1124 -1180 0
-1124 -1181 0
-1124 -1182 0
-1124 -1183 0
-1124 -1184 0
-1124 -1185 0
-1124 -1186 0
-1124 -1187 0
-1124 -1188 0
-1124 -1189 0
-1125 -1126 0
-1125 -1127 0
-1125 -1128 0
-1125 -1129 0
-1125 -1130 0
-1125 -1131 0
-1125 -1132 0
-1125 -1133 0
-1125 -1134 0
-1125 -1135 0
-1125 -1136 0
-1125 -1137 0
-1125 -1138 0
-1125 -1139 0
-1125 -1140 0
-1125 -1141 0
-1125 -1142 0
-1125 -1143 0
-1125 -1144 0
-1125 -1145 0
-1125 -1146 0
-1125 -1147 0
-1125 -1148 0
-1125 -1149 0
-1125 -1150 0
-1125 -1151 0
-1125 -1152 0
-1125 -1153 0
-1125 -1154 0
-1125 -1155 0
-1125 -1156 0
-1125 -1157 0
-1125 -1158 0
-1125 -1159 0
-1125 -1160 0
-1125 -1161 0
-1125 -1162 0
-1125 -1163 0
-1125 -1164 0
-1125 -1165 0
-1125 -1166 0
-1125 -1167 0
-1125 -1168 0
-1125 -1169 0
-1125 -1170 0
-1125 -1171 0
-1125 -1172 0
-1125 -1173 0
-1125 -1174 0
-1125 -1175 0
-1125 -1176 0
-1125 -1177 0
-1125 -1178 0
-1125 -1179 0
-1125 -1180 0
-1125 -1181 0
-1125 -1182 0
-1125 -1183 0
-1125 -1184 0
-1125 -1185 0
-1125 -1186 0
-1125 -1187 0
-1125 -1188 0
-1125 -1189 0
-1126 -1127 0
-1126 -1128 0
-1126 -1129 0
-1126 -1130 0
-1126 -1131 0
-1126 -1132 0
-1126 -1133 0
-1126 -1134 0
-1126 -1135 0
-1126 -1136 0
-1126 -1137 0
-1126 -1138 0
-1126 -1139 0
-1126 -1140 0
-1126 -1141 0
-1126 -1142 0
-1126 -1143 0
-1126 -1144 0
-1126 -1145 0
-1126 -1146 0
-1126 -1147 0
-1126 -1148 0
-1126 -1149 0
-1126 -1150 0
-1126 -1151 0
-1126 -1152 0
-1126 -1153 0
-1126 -1154 0
-1126 -1155 0
-1126 -1156 0
-1126 -1157 0
-1126 -1158 0
-1126 -1159 0
-1126 -1160 0
-1126 -1161 0
-1126 -1162 0
-1126 -1163 0
-1126 -1164 0
-1126 -1165 0
-1126 -1166 0
-1126 -1167 0
-1126 -1168 0
-1126 -1169 0
-1126 -1170 0
-1126 -1171 0
-1126 -1172 0
-1126 -1173 0
-1126 -1174 0
-1126 -1175 0
-1126 -1176 0
-1126 -1177 0
-1126 -1178 0
-1126 -1179 0
-1126 -1180 0
-1126 -1181 0
-1126 -1182 0
-1126 -1183 0
-1126 -1184 0
-1126 -1185 0
-1126 -1186 0
-1126 -1187 0
-1126 -1188 0
-1126 -1189 0
-1127 -1128 0
-1127 -1129 0
-1127 -1130 0
-1127 -1131 0
-1127 -1132 0
-1127 -1133 0
-1127 -1134 0
-1127 -1135 0
-1127 -1136 0
-1127 -1137 0
-1127 -1138 0
-1127 -1139 0
-1127 -1140 0
-1127 -1141 0
-1127 -1142 0
-1127 -1143 0
-1127 -1144 0
-1127 -1145 0
-1127 -1146 0
-1127 -1147 0
-1127 -1148 0
-1127 -1149 0
-1127 -1150 0
-1127 -1151 0
-1127 -1152 0
-1127 -1153 0
-1127 -1154 0
-1127 -1155 0
-1127 -1156 0
-1127 -1157 0
-1127 -1158 0
-1127 -1159 0
-1127 -1160 0
-1127 -1161 0
-1127 -1162 0
-1127 -1163 0
-1127 -1164 0
-1127 -1165 0
-1127 -1166 0
-1127 -1167 0
-1127 -1168 0
-1127 -1169 0
-1127 -1170 0
-1127 -1171 0
-1127 -1172 0
-1127 -1173 0
-1127 -1174 0
-1127 -1175 0
-1127 -1176 0
-1127 -1177 0
-1127 -1178 0
-1127 -1179 0
-1127 -1180 0
-1127 -1181 0
-1127 -1182 0
-1127 -1183 0
-1127 -1184 0
-1127 -1185 0
-1127 -1186 0
-1127 -1187 0
-1127 -1188 0
-1127 -1189 0
-1128 -1129 0
-1128 -1130 0
-1128 -1131 0
-1128 -1132 0
-1128 -1133 0
-1128 -1134 0
-1128 -1135 0
-1128 -1136 0
-1128 -1137 0
-1128 -1138 0
-1128 -1139 0
-1128 -1140 0
-1128 -1141 0
-1128 -1142 0
-1128 -1143 0
-1128 -1144 0
-1128 -1145 0
-1128 -1146 0
-1128 -1147 0
-1128 -1148 0
-1128 -1149 0
-1128 -1150 0
-1128 -1151 0
-1128 -1152 0
-1128 -1153 0
-1128 -1154 0
-1128 -1155 0
-1128 -1156 0
-1128 -1157 0
-1128 -1158 0
-1128 -1159 0
-1128 -1160 0
-1128 -1161 0
-1128 -1162 0
-1128 -1163 0
-1128 -1164 0
-1128 -1165 0
-1128 -1166 0
-1128 -1167 0
-1128 -1168 0
-1128 -1169 0
-1128 -1170 0
-1128 -1171 0
-1128 -1172 0
-1128 -1173 0
-1128 -1174 0
-1128 -1175 0
-1128 -1176 0
-1128 -1177 0
-1128 -1178 0
-1128 -1179 0
-1128 -1180 0
-1128 -1181 0
-1128 -1182 0
-1128 -1183 0
-1128 -1184 0
-1128 -1185 0
-1128 -1186 0
-1128 -1187 0
-1128 -1188 0
-1128 -1189 0
-1129 -1130 0
-1129 -1131 0
-1129 -1132 0
-1129 -1133 0
-1129 -1134 0
-1129 -1135 0
-1129 -1136 0
-1129 -1137 0
-1129 -1138 0
-1129 -1139 0
-1129 -1140 0
-1129 -1141 0
-1129 -1142 0
-1129 -1143 0
-1129 -1144 0
-1129 -1145 0
-1129 -1146 0
-1129 -1147 0
-1129 -1148 0
-1129 -1149 0
-1129 -1150 0
-1129 -1151 0
-1129 -1152 0
-1129 -1153 0
-1129 -1154 0
-1129 -1155 0
-1129 -1156 0
-1129 -1157 0
-1129 -1158 0
-1129 -1159 0
-1129 -1160 0
-1129 -1161 0
-1129 -1162 0
-1129 -1163 0
-1129 -1164 0
-1129 -1165 0
-1129 -1166 0
-1129 -1167 0
-1129 -1168 0
-1129 -1169 0
-1129 -1170 0
-1129 -1171 0
-1129 -1172 0
-1129 -1173 0
-1129 -1174 0
-1129 -1175 0
-1129 -1176 0
-1129 -1177 0
-1129 -1178 0
-1129 -1179 0
-1129 -1180 0
-1129 -1181 0
-1129 -1182 0
-1129 -1183 0
-1129 -1184 0
-1129 -1185 0
-1129 -1186 0
-1129 -1187 0
-1129 -1188 0
-1129 -1189 0
-1130 -1131 0
-1130 -1132 0
-1130 -1133 0
-1130 -1134 0
-1130 -1135 0
-1130 -1136 0
-1130 -1137 0
-1130 -1138 0
-1130 -1139 0
-1130 -1140 0
-1130 -1141 0
-1130 -1142 0
-1130 -1143 0
-1130 -1144 0
-1130 -1145 0
-1130 -1146 0
-1130 -1147 0
-1130 -1148 0
-1130 -1149 0
-1130 -1150 0
-1130 -1151 0
-1130 -1152 0
-1130 -1153 0
-1130 -1154 0
-1130 -1155 0
-1130 -1156 0
-1130 -1157 0
-1130 -1158 0
-1130 -1159 0
-1130 -1160 0
-1130 -1161 0
-1130 -1162 0
-1130 -1163 0
-1130 -1164 0
-1130 -1165 0
-1130 -1166 0
-1130 -1167 0
-1130 -1168 0
-1130 -1169 0
-1130 -1170 0
-1130 -1171 0
-1130 -1172 0
-1130 -1173 0
-1130 -1174 0
-1130 -1175 0
-1130 -1176 0
-1130 -1177 0
-1130 -1178 0
-1130 -1179 0
-1130 -1180 0
-1130 -1181 0
-1130 -1182 0
-1130 -1183 0
-1130 -1184 0
-1130 -1185 0
-1130 -1186 0
-1130 -1187 0
-1130 -1188 0
-1130 -1189 0
-1131 -1132 0
-1131 -1133 0
-1131 -1134 0
-1131 -1135 0
-1131 -1136 0
-1131 -1137 0
-1131 -1138 0
-1131 -1139 0
-1131 -1140 0
-1131 -1141 0
-1131 -1142 0
-1131 -1143 0
-1131 -1144 0
-1131 -1145 0
-1131 -1146 0
-1131 -1147 0
-1131 -1148 0
-1131 -1149 0
-1131 -1150 0
-1131 -1151 0
-1131 -1152 0
-1131 -1153 0
-1131 -1154 0
-1131 -1155 0
-1131 -1156 0
-1131 -1157 0
-1131 -1158 0
-1131 -1159 0
-1131 -1160 0
-1131 -1161 0
-1131 -1162 0
-1131 -1163 0
-1131 -1164 0
-1131 -1165 0
-1131 -1166 0
-1131 -1167 0
-1131 -1168 0
-1131 -1169 0
-1131 -1170 0
-1131 -1171 0
-1131 -1172 0
-1131 -1173 0
-1131 -1174 0
-1131 -1175 0
-1131 -1176 0
-1131 -1177 0
-1131 -1178 0
-1131 -1179 0
-1131 -1180 0
-1131 -1181 0
-1131 -1182 0
-1131 -1183 0
-1131 -1184 0
-1131 -1185 0
-1131 -1186 0
-1131 -1187 0
-1131 -1188 0
-1131 -1189 0
-1132 -1133 0
-1132 -1134 0
-1132 -1135 0
-1132 -1136 0
-1132 -1137 0
-1132 -1138 0
-1132 -1139 0
-1132 -1140 0
-1132 -1141 0
-1132 -1142 0
-1132 -1143 0
-1132 -1144 0
-1132 -1145 0
-1132 -1146 0
-1132 -1147 0
-1132 -1148 0
-1132 -1149 0
-1132 -1150 0
-1132 -1151 0
-1132 -1152 0
-1132 -1153 0
-1132 -1154 0
-1132 -1155 0
-1132 -1156 0
-1132 -1157 0
-1132 -1158 0
-1132 -1159 0
-1132 -1160 0
-1132 -1161 0
-1132 -1162 0
-1132 -1163 0
-1132 -1164 0
-1132 -1165 0
-1132 -1166 0
-1132 -1167 0
-1132 -1168 0
-1132 -1169 0
-1132 -1170 0
-1132 -1171 0
-1132 -1172 0
-1132 -1173 0
-1132 -1174 0
-1132 -1175 0
-1132 -1176 0
-1132 -1177 0
-1132 -1178 0
-1132 -1179 0
-1132 -1180 0
-1132 -1181 0
-1132 -1182 0
-1132 -1183 0
-1132 -1184 0
-1132 -1185 0
-1132 -1186 0
-1132 -1187 0
-1132 -1188 0
-1132 -1189 0
-1133 -1134 0
-1133 -1135 0
-1133 -1136 0
-1133 -1137 0
-1133 -1138 0
-1133 -1139 0
-1133 -1140 0
-1133 -1141 0
-1133 -1142 0
-1133 -1143 0
-1133 -1144 0
-1133 -1145 0
-1133 -1146 0
-1133 -1147 0
-1133 -1148 0
-1133 -1149 0
-1133 -1150 0
-1133 -1151 0
-1133 -1152 0
-1133 -1153 0
-1133 -1154 0
-1133 -1155 0
-1133 -1156 0
-1133 -1157 0
-1133 -1158 0
-1133 -1159 0
-1133 -1160 0
-1133 -1161 0
-1133 -1162 0
-1133 -1163 0
-1133 -1164 0
-1133 -1165 0
-1133 -1166 0
-1133 -1167 0
-1133 -1168 0
-1133 -1169 0
-1133 -1170 0
-1133 -1171 0
-1133 -1172 0
-1133 -1173 0
-1133 -1174 0
-1133 -1175 0
-1133 -1176 0
-1133 -1177 0
-1133 -1178 0
-1133 -1179 0
-1133 -1180 0
-1133 -1181 0
-1133 -1182 0
-1133 -1183 0
-1133 -1184 0
-1133 -1185 0
-1133 -1186 0
-1133 -1187 0
-1133 -1188 0
-1133 -1189 0
-1134 -1135 0
-1134 -1136 0
-1134 -1137 0
-1134 -1138 0
-1134 -1139 0
-1134 -1140 0
-1134 -1141 0
-1134 -1142 0
-1134 -1143 0
-1134 -1144 0
-1134 -1145 0
-1134 -1146 0
-1134 -1147 0
-1134 -1148 0
-1134 -1149 0
-1134 -1150 0
-1134 -1151 0
-1134 -1152 0
-1134 -1153 0
-1134 -1154 0
-1134 -1155 0
-1134 -1156 0
-1134 -1157 0
-1134 -1158 0
-1134 -1159 0
-1134 -1160 0
-1134 -1161 0
-1134 -1162 0
-1134 -1163 0
-1134 -1164 0
-1134 -1165 0
-1134 -1166 0
-1134 -1167 0
-1134 -1168 0
-1134 -1169 0
-1134 -1170 0
-1134 -1171 0
-1134 -1172 0
-1134 -1173 0
-1134 -1174 0
-1134 -1175 0
-1134 -1176 0
-1134 -1177 0
-1134 -1178 0
-1134 -1179 0
-1134 -1180 0
-1134 -1181 0
-1134 -1182 0
-1134 -1183 0
-1134 -1184 0
-1134 -1185 0
-1134 -1186 0
-1134 -1187 0
-1134 -1188 0
-1134 -1189 0
-1135 -1136 0
-1135 -1137 0
-1135 -1138 0
-1135 -1139 0
-1135 -1140 0
-1135 -1141 0
-1135 -1142 0
-1135 -1143 0
-1135 -1144 0
-1135 -1145 0
-1135 -1146 0
-1135 -1147 0
-1135 -1148 0
-1135 -1149 0
-1135 -1150 0
-1135 -1151 0
-1135 -1152 0
-1135 -1153 0
-1135 -1154 0
-1135 -1155 0
-1135 -1156 0
-1135 -1157 0
-1135 -1158 0
-1135 -1159 0
-1135 -1160 0
-1135 -1161 0
-1135 -1162 0
-1135 -1163 0
-1135 -1164 0
-1135 -1165 0
-1135 -1166 0
-1135 -1167 0
-1135 -1168 0
-1135 -1169 0
-1135 -1170 0
-1135 -1171 0
-1135 -1172 0
-1135 -1173 0
-1135 -1174 0
-1135 -1175 0
-1135 -1176 0
-1135 -1177 0
-1135 -1178 0
-1135 -1179 0
-1135 -1180 0
-1135 -1181 0
-1135 -1182 0
-1135 -1183 0
-1135 -1184 0
-1135 -1185 0
-1135 -1186 0
-1135 -1187 0
-1135 -1188 0
-1135 -1189 0
-1136 -1137 0
-1136 -1138 0
-1136 -1139 0
-1136 -1140 0
-1136 -1141 0
-1136 -1142 0
-1136 -1143 0
-1136 -1144 0
-1136 -1145 0
-1136 -1146 0
-1136 -1147 0
-1136 -1148 0
-1136 -1149 0
-1136 -1150 0
-1136 -1151 0
-1136 -1152 0
-1136 -1153 0
-1136 -1154 0
-1136 -1155 0
-1136 -1156 0
-1136 -1157 0
-1136 -1158 0
-1136 -1159 0
-1136 -1160 0
-1136 -1161 0
-1136 -1162 0
-1136 -1163 0
-1136 -1164 0
-1136 -1165 0
-1136 -1166 0
-1136 -1167 0
-1136 -1168 0
-1136 -1169 0
-1136 -1170 0
-1136 -1171 0
-1136 -1172 0
-1136 -1173 0
-1136 -1174 0
-1136 -1175 0
-1136 -1176 0
-1136 -1177 0
-1136 -1178 0
-1136 -1179 0
-1136 -1180 0
-1136 -1181 0
-1136 -1182 0
-1136 -1183 0
-1136 -1184 0
-1136 -1185 0
-1136 -1186 0
-1136 -1187 0
-1136 -1188 0
-1136 -1189 0
-1137 -1138 0
-1137 -1139 0
-1137 -1140 0
-1137 -1141 0
-1137 -1142 0
-1137 -1143 0
-1137 -1144 0
-1137 -1145 0
-1137 -1146 0
-1137 -1147 0
-1137 -1148 0
-1137 -1149 0
-1137 -1150 0
-1137 -1151 0
-1137 -1152 0
-1137 -1153 0
-1137 -1154 0
-1137 -1155 0
-1137 -1156 0
-1137 -1157 0
-1137 -1158 0
-1137 -1159 0
-1137 -1160 0
-1137 -1161 0
-1137 -1162 0
-1137 -1163 0
-1137 -1164 0
-1137 -1165 0
-1137 -1166 0
-1137 -1167 0
-1137 -1168 0
-1137 -1169 0
-1137 -1170 0
-1137 -1171 0
-1137 -1172 0
-1137 -1173 0
-1137 -1174 0
-1137 -1175 0
-1137 -1176 0
-1137 -1177 0
-1137 -1178 0
-1137 -1179 0
-1137 -1180 0
-1137 -1181 0
-1137 -1182 0
-1137 -1183 0
-1137 -1184 0
-1137 -1185 0
-1137 -1186 0
-1137 -1187 0
-1137 -1188 0
-1137 -1189 0
-1138 -1139 0
-1138 -1140 0
-1138 -1141 0
-1138 -1142 0
-1138 -1143 0
-1138 -1144 0
-1138 -1145 0
-1138 -1146 0
-1138 -1147 0
-1138 -1148 0
-1138 -1149 0
-1138 -1150 0
-1138 -1151 0
-1138 -1152 0
-1138 -1153 0
-1138 -1154 0
-1138 -1155 0
-1138 -1156 0
-1138 -1157 0
-1138 -1158 0
-1138 -1159 0
-1138 -1160 0
-1138 -1161 0
-1138 -1162 0
-1138 -1163 0
-1138 -1164 0
-1138 -1165 0
-1138 -1166 0
-1138 -1167 0
-1138 -1168 0
-1138 -1169 0
-1138 -1170 0
-1138 -1171 0
-1138 -1172 0
-1138 -1173 0
-1138 -1174 0
-1138 -1175 0
-1138 -1176 0
-1138 -1177 0
-1138 -1178 0
-1138 -1179 0
-1138 -1180 0
-1138 -1181 0
-1138 -1182 0
-1138 -1183 0
-1138 -1184 0
-1138 -1185 0
-1138 -1186 0
-1138 -1187 0
-1138 -1188 0
-1138 -1189 0
-1139 -1140 0
-1139 -1141 0
-1139 -1142 0
-1139 -1143 0
-1139 -1144 0
-1139 -1145 0
-1139 -1146 0
-1139 -1147 0
-1139 -1148 0
-1139 -1149 0
-1139 -1150 0
-1139 -1151 0
-1139 -1152 0
-1139 -1153 0
-1139 -1154 0
-1139 -1155 0
-1139 -1156 0
-1139 -1157 0
-1139 -1158 0
-1139 -1159 0
-1139 -1160 0
-1139 -1161 0
-1139 -1162 0
-1139 -1163 0
-1139 -1164 0
-1139 -1165 0
-1139 -1166 0
-1139 -1167 0
-1139 -1168 0
-1139 -1169 0
-1139 -1170 0
-1139 -1171 0
-1139 -1172 0
-1139 -1173 0
-1139 -1174 0
-1139 -1175 0
-1139 -1176 0
-1139 -1177 0
-1139 -1178 0
-1139 -1179 0
-1139 -1180 0
-1139 -1181 0
-1139 -1182 0
-1139 -1183 0
-1139 -1184 0
-1139 -1185 0
-1139 -1186 0
-1139 -1187 0
-1139 -1188 0
-1139 -1189 0
-1140 -1141 0
-1140 -1142 0
-1140 -1143 0
-1140 -1144 0
-1140 -1145 0
-1140 -1146 0
-1140 -1147 0
-1140 -1148 0
-1140 -1149 0
-1140 -1150 0
-1140 -1151 0
-1140 -1152 0
-1140 -1153 0
-1140 -1154 0
-1140 -1155 0
-1140 -1156 0
-1140 -1157 0
-1140 -1158 0
-1140 -1159 0
-1140 -1160 0
-1140 -1161 0
-1140 -1162 0
-1140 -1163 0
-1140 -1164 0
-1140 -1165 0
-1140 -1166 0
-1140 -1167 0
-1140 -1168 0
-1140 -1169 0
-1140 -1170 0
-1140 -1171 0
-1140 -1172 0
-1140 -1173 0
-1140 -1174 0
-1140 -1175 0
-1140 -1176 0
-1140 -1177 0
-1140 -1178 0
-1140 -1179 0
-1140 -1180 0
-1140 -1181 0
-1140 -1182 0
-1140 -1183 0
-1140 -1184 0
-1140 -1185 0
-1140 -1186 0
-1140 -1187 0
-1140 -1188 0
-1140 -1189 0
-1141 -1142 0
-1141 -1143 0
-1141 -1144 0
-1141 -1145 0
-1141 -1146 0
-1141 -1147 0
-1141 -1148 0
-1141 -1149 0
-1141 -1150 0
-1141 -1151 0
-1141 -1152 0
-1141 -1153 0
-1141 -1154 0
-1141 -1155 0
-1141 -1156 0
-1141 -1157 0
-1141 -1158 0
-1141 -1159 0
-1141 -1160 0
-1141 -1161 0
-1141 -1162 0
-1141 -1163 0
-1141 -1164 0
-1141 -1165 0
-1141 -1166 0
-1141 -1167 0
-1141 -1168 0
-1141 -1169 0
-1141 -1170 0
-1141 -1171 0
-1141 -1172 0
-1141 -1173 0
-1141 -1174 0
-1141 -1175 0
-1141 -1176 0
-1141 -1177 0
-1141 -1178 0
-1141 -1179 0
-1141 -1180 0
-1141 -1181 0
-1141 -1182 0
-1141 -1183 0
-1141 -1184 0
-1141 -1185 0
-1141 -1186 0
-1141 -1187 0
-1141 -1188 0
-1141 -1189 0
-1142 -1143 0
-1142 -1144 0
-1142 -1145 0
-1142 -1146 0
-1142 -1147 0
-1142 -1148 0
-1142 -1149 0
-1142 -1150 0
-1142 -1151 0
-1142 -1152 0
-1142 -1153 0
-1142 -1154 0
-1142 -1155 0
-1142 -1156 0
-1142 -1157 0
-1142 -1158 0
-1142 -1159 0
-1142 -1160 0
-1142 -1161 0
-1142 -1162 0
-1142 -1163 0
-1142 -1164 0
-1142 -1165 0
-1142 -1166 0
-1142 -1167 0
-1142 -1168 0
-1142 -1169 0
-1142 -1170 0
-1142 -1171 0
-1142 -1172 0
-1142 -1173 0
-1142 -1174 0
-1142 -1175 0
-1142 -1176 0
-1142 -1177 0
-1142 -1178 0
-1142 -1179 0
-1142 -1180 0
-1142 -1181 0
-1142 -1182 0
-1142 -1183 0
-1142 -1184 0
-1142 -1185 0
-1142 -1186 0
-1142 -1187 0
-1142 -1188 0
-1142 -1189 0
-1143 -1144 0
-1143 -1145 0
-1143 -1146 0
-1143 -1147 0
-1143 -1148 0
-1143 -1149 0
-1143 -1150 0
-1143 -1151 0
-1143 -1152 0
-1143 -1153 0
-1143 -1154 0
-1143 -1155 0
-1143 -1156 0
-1143 -1157 0
-1143 -1158 0
-1143 -1159 0
-1143 -1160 0
-1143 -1161 0
-1143 -1162 0
-1143 -1163 0
-1143 -1164 0
-1143 -1165 0
-1143 -1166 0
-1143 -1167 0
-1143 -1168 0
-1143 -1169 0
-1143 -1170 0
-1143 -1171 0
-1143 -1172 0
-1143 -1173 0
-1143 -1174 0
-1143 -1175 0
-1143 -1176 0
-1143 -1177 0
-1143 -1178 0
-1143 -1179 0
-1143 -1180 0
-1143 -1181 0
-1143 -1182 0
-1143 -1183 0
-1143 -1184 0
-1143 -1185 0
-1143 -1186 0
-1143 -1187 0
-1143 -1188 0
-1143 -1189 0
-1144 -1145 0
-1144 -1146 0
-1144 -1147 0
-1144 -1148 0
-1144 -1149 0
-1144 -1150 0
-1144 -1151 0
-1144 -1152 0
-1144 -1153 0
-1144 -1154 0
-1144 -1155 0
-1144 -1156 0
-1144 -1157 0
-1144 -1158 0
-1144 -1159 0
-1144 -1160 0
-1144 -1161 0
-1144 -1162 0
-1144 -1163 0
-1144 -1164 0
-1144 -1165 0
-1144 -1166 0
-1144 -1167 0
-1144 -1168 0
-1144 -1169 0
-1144 -1170 0
-1144 -1171 0
-1144 -1172 0
-1144 -1173 0
-1144 -1174 0
-1144 -1175 0
-1144 -1176 0
-1144 -1177 0
-1144 -1178 0
-1144 -1179 0
-1144 -1180 0
-1144 -1181 0
-1144 -1182 0
-1144 -1183 0
-1144 -1184 0
-1144 -1185 0
-1144 -1186 0
-1144 -1187 0
-1144 -1188 0
-1144 -1189 0
-1145 -1146 0
-1145 -1147 0
-1145 -1148 0
-1145 -1149 0
-1145 -1150 0
-1145 -1151 0
-1145 -1152 0
-1145 -1153 0
-1145 -1154 0
-1145 -1155 0
-1145 -1156 0
-1145 -1157 0
-1145 -1158 0
-1145 -1159 0
-1145 -1160 0
-1145 -1161 0
-1145 -1162 0
-1145 -1163 0
-1145 -1164 0
-1145 -1165 0
-1145 -1166 0
-1145 -1167 0
-1145 -1168 0
-1145 -1169 0
-1145 -1170 0
-1145 -1171 0
-1145 -1172 0
-1145 -1173 0
-1145 -1174 0
-1145 -1175 0
-1145 -1176 0
-1145 -1177 0
-1145 -1178 0
-1145 -1179 0
-1145 -1180 0
-1145 -1181 0
-1145 -1182 0
-1145 -1183 0
-1145 -1184 0
-1145 -1185 0
-1145 -1186 0
-1145 -1187 0
-1145 -1188 0
-1145 -1189 0
-1146 -1147 0
-1146 -1148 0
-1146 -1149 0
-1146 -1150 0
-1146 -1151 0
-1146 -1152 0
-1146 -1153 0
-1146 -1154 0
-1146 -1155 0
-1146 -1156 0
-1146 -1157 0
-1146 -1158 0
-1146 -1159 0
-1146 -1160 0
-1146 -1161 0
-1146 -1162 0
-1146 -1163 0
-1146 -1164 0
-1146 -1165 0
-1146 -1166 0
-1146 -1167 0
-1146 -1168 0
-1146 -1169 0
-1146 -1170 0
-1146 -1171 0
-1146 -1172 0
-1146 -1173 0
-1146 -1174 0
-1146 -1175 0
-1146 -1176 0
-1146 -1177 0
-1146 -1178 0
-1146 -1179 0
-1146 -1180 0
-1146 -1181 0
-1146 -1182 0
-1146 -1183 0
-1146 -1184 0
-1146 -1185 0
-1146 -1186 0
-1146 -1187 0
-1146 -1188 0
-1146 -1189 0
-1147 -1148 0
-1147 -1149 0
-1147 -1150 0
-1147 -1151 0
-1147 -1152 0
-1147 -1153 0
-1147 -1154 0
-1147 -1155 0
-1147 -1156 0
-1147 -1157 0
-1147 -1158 0
-1147 -1159 0
-1147 -1160 0
-1147 -1161 0
-1147 -1162 0
-1147 -1163 0
-1147 -1164 0
-1147 -1165 0
-1147 -1166 0
-1147 -1167 0
-1147 -1168 0
-1147 -1169 0
-1147 -1170 0
-1147 -1171 0
-1147 -1172 0
-1147 -1173 0
-1147 -1174 0
-1147 -1175 0
-1147 -1176 0
-1147 -1177 0
-1147 -1178 0
-1147 -1179 0
-1147 -1180 0
-1147 -1181 0
-1147 -1182 0
-1147 -1183 0
-1147 -1184 0
-1147 -1185 0
-1147 -1186 0
-1147 -1187 0
-1147 -1188 0
-1147 -1189 0
-1148 -1149 0
-1148 -1150 0
-1148 -1151 0
-1148 -1152 0
-1148 -1153 0
-1148 -1154 0
-1148 -1155 0
-1148 -1156 0
-1148 -1157 0
-1148 -1158 0
-1148 -1159 0
-1148 -1160 0
-1148 -1161 0
-1148 -1162 0
-1148 -1163 0
-1148 -1164 0
-1148 -1165 0
-1148 -1166 0
-1148 -1167 0
-1148 -1168 0
-1148 -1169 0
-1148 -1170 0
-1148 -1171 0
-1148 -1172 0
-1148 -1173 0
-1148 -1174 0
-1148 -1175 0
-1148 -1176 0
-1148 -1177 0
-1148 -1178 0
-1148 -1179 0
-1148 -1180 0
-1148 -1181 0
-1148 -1182 0
-1148 -1183 0
-1148 -1184 0
-1148 -1185 0
-1148 -1186 0
-1148 -1187 0
-1148 -1188 0
-1148 -1189 0
-1149 -1150 0
-1149 -1151 0
-1149 -1152 0
-1149 -1153 0
-1149 -1154 0
-1149 -1155 0
-1149 -1156 0
-1149 -1157 0
-1149 -1158 0
-1149 -1159 0
-1149 -1160 0
-1149 -1161 0
-1149 -1162 0
-1149 -1163 0
-1149 -1164 0
-1149 -1165 0
-1149 -1166 0
-1149 -1167 0
-1149 -1168 0
-1149 -1169 0
-1149 -1170 0
-1149 -1171 0
-1149 -1172 0
-1149 -1173 0
-1149 -1174 0
-1149 -1175 0
-1149 -1176 0
-1149 -1177 0
-1149 -1178 0
-1149 -1179 0
-1149 -1180 0
-1149 -1181 0
-1149 -1182 0
-1149 -1183 0
-1149 -1184 0
-1149 -1185 0
-1149 -1186 0
-1149 -1187 0
-1149 -1188 0
-1149 -1189 0
-1150 -1151 0
-1150 -1152 0
-1150 -1153 0
-1150 -1154 0
-1150 -1155 0
-1150 -1156 0
-1150 -1157 0
-1150 -1158 0
-1150 -1159 0
-1150 -1160 0
-1150 -1161 0
-1150 -1162 0
-1150 -1163 0
-1150 -1164 0
-1150 -1165 0
-1150 -1166 0
-1150 -1167 0
-1150 -1168 0
-1150 -1169 0
-1150 -1170 0
-1150 -1171 0
-1150 -1172 0
-1150 -1173 0
-1150 -1174 0
-1150 -1175 0
-1150 -1176 0
-1150 -1177 0
-1150 -1178 0
-1150 -1179 0
-1150 -1180 0
-1150 -1181 0
-1150 -1182 0
-1150 -1183 0
-1150 -1184 0
-1150 -1185 0
-1150 -1186 0
-1150 -1187 0
-1150 -1188 0
-1150 -1189 0
-1151 -1152 0
-1151 -1153 0
-1151 -1154 0
-1151 -1155 0
-1151 -1156 0
-1151 -1157 0
-1151 -1158 0
-1151 -1159 0
-1151 -1160 0
-1151 -1161 0
-1151 -1162 0
-1151 -1163 0
-1151 -1164 0
-1151 -1165 0
-1151 -1166 0
-1151 -1167 0
-1151 -1168 0
-1151 -1169 0
-1151 -1170 0
-1151 -1171 0
-1151 -1172 0
-1151 -1173 0
-1151 -1174 0
-1151 -1175 0
-1151 -1176 0
-1151 -1177 0
-1151 -1178 0
-1151 -1179 0
-1151 -1180 0
-1151 -1181 0
-1151 -1182 0
-1151 -1183 0
-1151 -1184 0
-1151 -1185 0
-1151 -1186 0
-1151 -1187 0
-1151 -1188 0
-1151 -1189 0
-1152 -1153 0
-1152 -1154 0
-1152 -1155 0
-1152 -1156 0
-1152 -1157 0
-1152 -1158 0
-1152 -1159 0
-1152 -1160 0
-1152 -1161 0
-1152 -1162 0
-1152 -1163 0
-1152 -1164 0
-1152 -1165 0
-1152 -1166 0
-1152 -1167 0
-1152 -1168 0
-1152 -1169 0
-1152 -1170 0
-1152 -1171 0
-1152 -1172 0
-1152 -1173 0
-1152 -1174 0
-1152 -1175 0
-1152 -1176 0
-1152 -1177 0
-1152 -1178 0
-1152 -1179 0
-1152 -1180 0
-1152 -1181 0
-1152 -1182 0
-1152 -1183 0
-1152 -1184 0
-1152 -1185 0
-1152 -1186 0
-1152 -1187 0
-1152 -1188 0
-1152 -1189 0
-1153 -1154 0
-1153 -1155 0
-1153 -1156 0
-1153 -1157 0
-1153 -1158 0
-1153 -1159 0
-1153 -1160 0
-1153 -1161 0
-1153 -1162 0
-1153 -1163 0
-1153 -1164 0
-1153 -1165 0
-1153 -1166 0
-1153 -1167 0
-1153 -1168 0
-1153 -1169 0
-1153 -1170 0
-1153 -1171 0
-1153 -1172 0
-1153 -1173 0
-1153 -1174 0
-1153 -1175 0
-1153 -1176 0
-1153 -1177 0
-1153 -1178 0
-1153 -1179 0
-1153 -1180 0
-1153 -1181 0
-1153 -1182 0
-1153 -1183 0
-1153 -1184 0
-1153 -1185 0
-1153 -1186 0
-1153 -1187 0
-1153 -1188 0
-1153 -1189 0
-1154 -1155 0
-1154 -1156 0
-1154 -1157 0
-1154 -1158 0
-1154 -1159 0
-1154 -1160 0
-1154 -1161 0
-1154 -1162 0
-1154 -1163 0
-1154 -1164 0
-1154 -1165 0
-1154 -1166 0
-1154 -1167 0
-1154 -1168 0
-1154 -1169 0
-1154 -1170 0
-1154 -1171 0
-1154 -1172 0
-1154 -1173 0
-1154 -1174 0
-1154 -1175 0
-1154 -1176 0
-1154 -1177 0
-1154 -1178 0
-1154 -1179 0
-1154 -1180 0
-1154 -1181 0
-1154 -1182 0
-1154 -1183 0
-1154 -1184 0
-1154 -1185 0
-1154 -1186 0
-1154 -1187 0
-1154 -1188 0
-1154 -1189 0
-1155 -1156 0
-1155 -1157 0
-1155 -1158 0
-1155 -1159 0
-1155 -1160 0
-1155 -1161 0
-1155 -1162 0
-1155 -1163 0
-1155 -1164 0
-1155 -1165 0
-1155 -1166 0
-1155 -1167 0
-1155 -1168 0
-1155 -1169 0
-1155 -1170 0
-1155 -1171 0
-1155 -1172 0
-1155 -1173 0
-1155 -1174 0
-1155 -1175 0
-1155 -1176 0
-1155 -1177 0
-1155 -1178 0
-1155 -1179 0
-1155 -1180 0
-1155 -1181 0
-1155 -1182 0
-1155 -1183 0
-1155 -1184 0
-1155 -1185 0
-1155 -1186 0
-1155 -1187 0
-1155 -1188 0
-1155 -1189 0
-1156 -1157 0
-1156 -1158 0
-1156 -1159 0
-1156 -1160 0
-1156 -1161 0
-1156 -1162 0
-1156 -1163 0
-1156 -1164 0
-1156 -1165 0
-1156 -1166 0
-1156 -1167 0
-1156 -1168 0
-1156 -1169 0
-1156 -1170 0
-1156 -1171 0
-1156 -1172 0
-1156 -1173 0
-1156 -1174 0
-1156 -1175 0
-1156 -1176 0
-1156 -1177 0
-1156 -1178 0
-1156 -1179 0
-1156 -1180 0
-1156 -1181 0
-1156 -1182 0
-1156 -1183 0
-1156 -1184 0
-1156 -1185 0
-1156 -1186 0
-1156 -1187 0
-1156 -1188 0
-1156 -1189 0
-1157 -1158 0
-1157 -1159 0
-1157 -1160 0
-1157 -1161 0
-1157 -1162 0
-1157 -1163 0
-1157 -1164 0
-1157 -1165 0
-1157 -1166 0
-1157 -1167 0
-1157 -1168 0
-1157 -1169 0
-1157 -1170 0
-1157 -1171 0
-1157 -1172 0
-1157 -1173 0
-1157 -1174 0
-1157 -1175 0
-1157 -1176 0
-1157 -1177 0
-1157 -1178 0
-1157 -1179 0
-1157 -1180 0
-1157 -1181 0
-1157 -1182 0
-1157 -1183 0
-1157 -1184 0
-1157 -1185 0
-1157 -1186 0
-1157 -1187 0
-1157 -1188 0
-1157 -1189 0
-1158 -1159 0
-1158 -1160 0
-1158 -1161 0
-1158 -1162 0
-1158 -1163 0
-1158 -1164 0
-1158 -1165 0
-1158 -1166 0
-1158 -1167 0
-1158 -1168 0
-1158 -1169 0
-1158 -1170 0
-1158 -1171 0
-1158 -1172 0
-1158 -1173 0
-1158 -1174 0
-1158 -1175 0
-1158 -1176 0
-1158 -1177 0
-1158 -1178 0
-1158 -1179 0
-1158 -1180 0
-1158 -1181 0
-1158 -1182 0
-1158 -1183 0
-1158 -1184 0
-1158 -1185 0
-1158 -1186 0
-1158 -1187 0
-1158 -1188 0
-1158 -1189 0
-1159 -1160 0
-1159 -1161 0
-1159 -1162 0
-1159 -1163 0
-1159 -1164 0
-1159 -1165 0
-1159 -1166 0
-1159 -1167 0
-1159 -1168 0
-1159 -1169 0
-1159 -1170 0
-1159 -1171 0
-1159 -1172 0
-1159 -1173 0
-1159 -1174 0
-1159 -1175 0
-1159 -1176 0
-1159 -1177 0
-1159 -1178 0
-1159 -1179 0
-1159 -1180 0
-1159 -1181 0
-1159 -1182 0
-1159 -1183 0
-1159 -1184 0
-1159 -1185 0
-1159 -1186 0
-1159 -1187 0
-1159 -1188 0
-1159 -1189 0
-1160 -1161 0
-1160 -1162 0
-1160 -1163 0
-1160 -1164 0
-1160 -1165 0
-1160 -1166 0
-1160 -1167 0
-1160 -1168 0
-1160 -1169 0
-1160 -1170 0
-1160 -1171 0
-1160 -1172 0
-1160 -1173 0
-1160 -1174 0
-1160 -1175 0
-1160 -1176 0
-1160 -1177 0
-1160 -1178 0
-1160 -1179 0
-1160 -1180 0
-1160 -1181 0
-1160 -1182 0
-1160 -1183 0
-1160 -1184 0
-1160 -1185 0
-1160 -1186 0
-1160 -1187 0
-1160 -1188 0
-1160 -1189 0
-1161 -1162 0
-1161 -1163 0
-1161 -1164 0
-1161 -1165 0
-1161 -1166 0
-1161 -1167 0
-1161 -1168 0
-1161 -1169 0
-1161 -1170 0
-1161 -1171 0
-1161 -1172 0
-1161 -1173 0
-1161 -1174 0
-1161 -1175 0
-1161 -1176 0
-1161 -1177 0
-1161 -1178 0
-1161 -1179 0
-1161 -1180 0
-1161 -1181 0
-1161 -1182 0
-1161 -1183 0
-1161 -1184 0
-1161 -1185 0
-1161 -1186 0
-1161 -1187 0
-1161 -1188 0
-1161 -1189 0
-1162 -1163 0
-1162 -1164 0
-1162 -1165 0
-1162 -1166 0
-1162 -1167 0
-1162 -1168 0
-1162 -1169 0
-1162 -1170 0
-1162 -1171 0
-1162 -1172 0
-1162 -1173 0
-1162 -1174 0
-1162 -1175 0
-1162 -1176 0
-1162 -1177 0
-1162 -1178 0
-1162 -1179 0
-1162 -1180 0
-1162 -1181 0
-1162 -1182 0
-1162 -1183 0
-1162 -1184 0
-1162 -1185 0
-1162 -1186 0
-1162 -1187 0
-1162 -1188 0
-1162 -1189 0
-1163 -1164 0
-1163 -1165 0
-1163 -1166 0
-1163 -1167 0
-1163 -1168 0
-1163 -1169 0
-1163 -1170 0
-1163 -1171 0
-1163 -1172 0
-1163 -1173 0
-1163 -1174 0
-1163 -1175 0
-1163 -1176 0
-1163 -1177 0
-1163 -1178 0
-1163 -1179 0
-1163 -1180 0
-1163 -1181 0
-1163 -1182 0
-1163 -1183 0
-1163 -1184 0
-1163 -1185 0
-1163 -1186 0
-1163 -1187 0
-1163 -1188 0
-1163 -1189 0
-1164 -1165 0
-1164 -1166 0
-1164 -1167 0
-1164 -1168 0
-1164 -1169 0
-1164 -1170 0
-1164 -1171 0
-1164 -1172 0
-1164 -1173 0
-1164 -1174 0
-1164 -1175 0
-1164 -1176 0
-1164 -1177 0
-1164 -1178 0
-1164 -1179 0
-1164 -1180 0
-1164 -1181 0
-1164 -1182 0
-1164 -1183 0
-1164 -1184 0
-1164 -1185 0
-1164 -1186 0
-1164 -1187 0
-1164 -1188 0
-1164 -1189 0
-1165 -1166 0
-1165 -1167 0
-1165 -1168 0
-1165 -1169 0
-1165 -1170 0
-1165 -1171 0
-1165 -1172 0
-1165 -1173 0
-1165 -1174 0
-1165 -1175 0
-1165 -1176 0
-1165 -1177 0
-1165 -1178 0
-1165 -1179 0
-1165 -1180 0
-1165 -1181 0
-1165 -1182 0
-1165 -1183 0
-1165 -1184 0
-1165 -1185 0
-1165 -1186 0
-1165 -1187 0
-1165 -1188 0
-1165 -1189 0
-1166 -1167 0
-1166 -1168 0
-1166 -1169 0
-1166 -1170 0
-1166 -1171 0
-1166 -1172 0
-1166 -1173 0
-1166 -1174 0
-1166 -1175 0
-1166 -1176 0
-1166 -1177 0
-1166 -1178 0
-1166 -1179 0
-1166 -1180 0
-1166 -1181 0
-1166 -1182 0
-1166 -1183 0
-1166 -1184 0
-1166 -1185 0
-1166 -1186 0
-1166 -1187 0
-1166 -1188 0
-1166 -1189 0
-1167 -1168 0
-1167 -1169 0
-1167 -1170 0
-1167 -1171 0
-1167 -1172 0
-1167 -1173 0
-1167 -1174 0
-1167 -1175 0
-1167 -1176 0
-1167 -1177 0
-1167 -1178 0
-1167 -1179 0
-1167 -1180 0
-1167 -1181 0
-1167 -1182 0
-1167 -1183 0
-1167 -1184 0
-1167 -1185 0
-1167 -1186 0
-1167 -1187 0
-1167 -1188 0
-1167 -1189 0
-1168 -1169 0
-1168 -1170 0
-1168 -1171 0
-1168 -1172 0
-1168 -1173 0
-1168 -1174 0
-1168 -1175 0
-1168 -1176 0
-1168 -1177 0
-1168 -1178 0
-1168 -1179 0
-1168 -1180 0
-1168 -1181 0
-1168 -1182 0
-1168 -1183 0
-1168 -1184 0
-1168 -1185 0
-1168 -1186 0
-1168 -1187 0
-1168 -1188 0
-1168 -1189 0
-1169 -1170 0
-1169 -1171 0
-1169 -1172 0
-1169 -1173 0
-1169 -1174 0
-1169 -1175 0
-1169 -1176 0
-1169 -1177 0
-1169 -1178 0
-1169 -1179 0
-1169 -1180 0
-1169 -1181 0
-1169 -1182 0
-1169 -1183 0
-1169 -1184 0
-1169 -1185 0
-1169 -1186 0
-1169 -1187 0
-1169 -1188 0
-1169 -1189 0
-1170 -1171 0
-1170 -1172 0
-1170 -1173 0
-1170 -1174 0
-1170 -1175 0
-1170 -1176 0
-1170 -1177 0
-1170 -1178 0
-1170 -1179 0
-1170 -1180 0
-1170 -1181 0
-1170 -1182 0
-1170 -1183 0
-1170 -1184 0
-1170 -1185 0
-1170 -1186 0
-1170 -1187 0
-1170 -1188 0
-1170 -1189 0
-1171 -1172 0
-1171 -1173 0
-1171 -1174 0
-1171 -1175 0
-1171 -1176 0
-1171 -1177 0
-1171 -1178 0
-1171 -1179 0
-1171 -1180 0
-1171 -1181 0
-1171 -1182 0
-1171 -1183 0
-1171 -1184 0
-1171 -1185 0
-1171 -1186 0
-1171 -1187 0
-1171 -1188 0
-1171 -1189 0
-1172 -1173 0
-1172 -1174 0
-1172 -1175 0
-1172 -1176 0
-1172 -1177 0
-1172 -1178 0
-1172 -1179 0
-1172 -1180 0
-1172 -1181 0
-1172 -1182 0
-1172 -1183 0
-1172 -1184 0
-1172 -1185 0
-1172 -1186 0
-1172 -1187 0
-1172 -1188 0
-1172 -1189 0
-1173 -1174 0
-1173 -1175 0
-1173 -1176 0
-1173 -1177 0
-1173 -1178 0
-1173 -1179 0
-1173 -1180 0
-1173 -1181 0
-1173 -1182 0
-1173 -1183 0
-1173 -1184 0
-1173 -1185 0
-1173 -1186 0
-1173 -1187 0
-1173 -1188 0
-1173 -1189 0
-1174 -1175 0
-1174 -1176 0
-1174 -1177 0
-1174 -1178 0
-1174 -1179 0
-1174 -1180 0
-1174 -1181 0
-1174 -1182 0
-1174 -1183 0
-1174 -1184 0
-1174 -1185 0
-1174 -1186 0
-1174 -1187 0
-1174 -1188 0
-1174 -1189 0
-1175 -1176 0
-1175 -1177 0
-1175 -1178 0
-1175 -1179 0
-1175 -1180 0
-1175 -1181 0
-1175 -1182 0
-1175 -1183 0
-1175 -1184 0
-1175 -1185 0
-1175 -1186 0
-1175 -1187 0
-1175 -1188 0
-1175 -1189 0
-1176 -1177 0
-1176 -1178 0
-1176 -1179 0
-1176 -1180 0
-1176 -1181 0
-1176 -1182 0
-1176 -1183 0
-1176 -1184 0
-1176 -1185 0
-1176 -1186 0
-1176 -1187 0
-1176 -1188 0
-1176 -1189 0
-1177 -1178 0
-1177 -1179 0
-1177 -1180 0
-1177 -1181 0
-1177 -1182 0
-1177 -1183 0
-1177 -1184 0
-1177 -1185 0
-1177 -1186 0
-1177 -1187 0
-1177 -1188 0
-1177 -1189 0
-1178 -1179 0
-1178 -1180 0
-1178 -1181 0
-1178 -1182 0
-1178 -1183 0
-1178 -1184 0
-1178 -1185 0
-1178 -1186 0
-1178 -1187 0
-1178 -1188 0
-1178 -1189 0
-1179 -1180 0
-1179 -1181 0
-1179 -1182 0
-1179 -1183 0
-1179 -1184 0
-1179 -1185 0
-1179 -1186 0
-1179 -1187 0
-1179 -1188 0
-1179 -1189 0
-1180 -1181 0
-1180 -1182 0
-1180 -1183 0
-1180 -1184 0
-1180 -1185 0
-1180 -1186 0
-1180 -1187 0
-1180 -1188 0
-1180 -1189 0
-1181 -1182 0
-1181 -1183 0
-1181 -1184 0
-1181 -1185 0
-1181 -1186 0
-1181 -1187 0
-1181 -1188 0
-1181 -1189 0
-1182 -1183 0
-1182 -1184 0
-1182 -1185 0
-1182 -1186 0
-1182 -1187 0
-1182 -1188 0
-1182 -1189 0
-1183 -1184 0
-1183 -1185 0
-1183 -1186 0
-1183 -1187 0
-1183 -1188 0
-1183 -1189 0
-1184 -1185 0
-1184 -1186 0
-1184 -1187 0
-1184 -1188 0
-1184 -1189 0
-1185 -1186 0
-1185 -1187 0
-1185 -1188 0
-1185 -1189 0
-1186 -1187 0
-1186 -1188 0
-1186 -1189 0
-1187 -1188 0
-1187 -1189 0
-1188 -1189 0
1190 1191 1192 1193 1194 1195 1196 1197 1198 1199 1200 1201 1202 1203 1204 1205 1206 1207 1208 1209 1210 1211 1212 1213 1214 1215 1216 1217 1218 1219 1220 1221 1222 1223 1224 1225 1226 1227 1228 1229 1230 1231 1232 1233 1234 1235 1236 1237 1238 1239 1240 1241 1242 1243 1244 1245 1246 1247 1248 1249 1250 1251 1252 1253 1254 1255 1256 1257 1258 1259 1260 1261 1262 1263 1264 1265 1266 1267 1268 1269 1270 1271 1272 1273 0
-1190 -1191 0
-1190 -1192 0
-1190 -1193 0
-1190 -1194 0
-1190 -1195 0
-1190 -1196 0
-1190 -1197 0
-1190 -1198 0
-1190 -1199 0
-1190 -1200 0
-1190 -1201 0
-1190 -1202 0
-1190 -1203 0
-1190 -1204 0
-1190 -1205 0
-1190 -1206 0
-1190 -1207 0
-1190 -1208 0
-1190 -1209 0
-1190 -1210 0
-1190 -1211 0
-1190 -1212 0
-1190 -1213 0
-1190 -1214 0
-1190 -1215 0
-1190 -1216 0
-1190 -1217 0
-1190 -1218 0
-1190 -1219 0
-1190 -1220 0
-1190 -1221 0
-1190 -1222 0
-1190 -1223 0
-1190 -1224 0
-1190 -1225 0
-1190 -1226 0
-1190 -1227 0
-1190 -1228 0
-1190 -1229 0
-1190 -1230 0
-1190 -1231 0
-1190 -1232 0
-1190 -1233 0
-1190 -1234 0
-1190 -1235 0
-1190 -1236 0
-1190 -1237 0
-1190 -1238 0
-1190 -1239 0
-1190 -1240 0
-1190 -1241 0
-1190 -1242 0
-1190 -1243 0
-1190 -1244 0
-1190 -1245 0
-1190 -1246 0
-1190 -1247 0
-1190 -1248 0
-1190 -1249 0
-1190 -1250 0
-1190 -1251 0
-1190 -1252 0
-1190 -1253 0
-1190 -1254 0
-1190 -1255 0
-1190 -1256 0
-1190 -1257 0
-1190 -1258 0
-1190 -1259 0
-1190 -1260 0
-1190 -1261 0
-1190 -1262 0
-1190 -1263 0
-1190 -1264 0
-1190 -1265 0
-1190 -1266 0
-1190 -1267 0
-1190 -1268 0
-1190 -1269 0
-1190 -1270 0
-1190 -1271 0
-1190 -1272 0
-1190 -1273 0
-1191 -1192 0
-1191 -1193 0
-1191 -1194 0
-1191 -1195 0
-1191 -1196 0
-1191 -1197 0
-1191 -1198 0
-1191 -1199 0
-1191 -1200 0
-1191 -1201 0
-1191 -1202 0
-1191 -1203 0
-1191 -1204 0
-1191 -1205 0
-1191 -1206 0
-1191 -1207 0
-1191 -1208 0
-1191 -1209 0
-1191 -1210 0
-1191 -1211 0
-1191 -1212 0
-1191 -1213 0
-1191 -1214 0
-1191 -1215 0
-1191 -1216 0
-1191 -1217 0
-1191 -1218 0
-1191 -1219 0
-1191 -1220 0
-1191 -1221 0
-1191 -1222 0
-1191 -1223 0
-1191 -1224 0
-1191 -1225 0
-1191 -1226 0
-1191 -1227 0
-1191 -1228 0
-1191 -1229 0
-1191 -1230 0
-1191 -1231 0
-1191 -1232 0
-1191 -1233 0
-1191 -1234 0
-1191 -1235 0
-1191 -1236 0
-1191 -1237 0
-1191 -1238 0
-1191 -1239 0
-1191 -1240 0
-1191 -1241 0
-1191 -1242 0
-1191 -1243 0
-1191 -1244 0
-1191 -1245 0
-1191 -1246 0
-1191 -1247 0
-1191 -1248 0
-1191 -1249 0
-1191 -1250 0
-1191 -1251 0
-1191 -1252 0
-1191 -1253 0
-1191 -1254 0
-1191 -1255 0
-1191 -1256 0
-1191 -1257 0
-1191 -1258 0
-1191 -1259 0
-1191 -1260 0
-1191 -1261 0
-1191 -1262 0
-1191 -1263 0
-1191 -1264 0
-1191 -1265 0
-1191 -1266 0
-1191 -1267 0
-1191 -1268 0
-1191 -1269 0
-1191 -1270 0
-1191 -1271 0
-1191 -1272 0
-1191 -1273 0
-1192 -1193 0
-1192 -1194 0
-1192 -1195 0
-1192 -1196 0
-1192 -1197 0
-1192 -1198 0
-1192 -1199 0
-1192 -1200 0
-1192 -1201 0
-1192 -1202 0
-1192 -1203 0
-1192 -1204 0
-1192 -1205 0
-1192 -1206 0
-1192 -1207 0
-1192 -1208 0
-1192 -1209 0
-1192 -1210 0
-1192 -1211 0
-1192 -1212 0
-1192 -1213 0
-1192 -1214 0
-1192 -1215 0
-1192 -1216 0
-1192 -1217 0
-1192 -1218 0
-1192 -1219 0
-1192 -1220 0
-1192 -1221 0
-1192 -1222 0
-1192 -1223 0
-1192 -1224 0
-1192 -1225 0
-1192 -1226 0
-1192 -1227 0
-1192 -1228 0
-1192 -1229 0
-1192 -1230 0
-1192 -1231 0
-1192 -1232 0
-1192 -1233 0
-1192 -1234 0
-1192 -1235 0
-1192 -1236 0
-1192 -1237 0
-1192 -1238 0
-1192 -1239 0
-1192 -1240 0
-1192 -1241 0
-1192 -1242 0
-1192 -1243 0
-1192 -1244 0
-1192 -1245 0
-1192 -1246 0
-1192 -1247 0
-1192 -1248 0
-1192 -1249 0
-1192 -1250 0
-1192 -1251 0
-1192 -1252 0
-1192 -1253 0
-1192 -1254 0
-1192 -1255 0
-1192 -1256 0
-1192 -1257 0
-1192 -1258 0
-1192 -1259 0
-1192 -1260 0
-1192 -1261 0
-1192 -1262 0
-1192 -1263 0
-1192 -1264 0
-1192 -1265 0
-1192 -1266 0
-1192 -1267 0
-1192 -1268 0
-1192 -1269 0
-1192 -1270 0
-1192 -1271 0
-1192 -1272 0
-1192 -1273 0
-1193 -1194 0
-1193 -1195 0
-1193 -1196 0
-1193 -1197 0
-1193 -1198 0
-1193 -1199 0
-1193 -1200 0
-1193 -1201 0
-1193 -1202 0
-1193 -1203 0
-1193 -1204 0
-1193 -1205 0
-1193 -1206 0
-1193 -1207 0
-1193 -1208 0
-1193 -1209 0
-1193 -1210 0
-1193 -1211 0
-1193 -1212 0
-1193 -1213 0
-1193 -1214 0
-1193 -1215 0
-1193 -1216 0
-1193 -1217 0
-1193 -1218 0
-1193 -1219 0
-1193 -1220 0
-1193 -1221 0
-1193 -1222 0
-1193 -1223 0
-1193 -1224 0
-1193 -1225 0
-1193 -1226 0
-1193 -1227 0
-1193 -1228 0
-1193 -1229 0
-1193 -1230 0
-1193 -1231 0
-1193 -1232 0
-1193 -1233 0
-1193 -1234 0
-1193 -1235 0
-1193 -1236 0
-1193 -1237 0
-1193 -1238 0
-1193 -1239 0
-1193 -1240 0
-1193 -1241 0
-1193 -1242 0
-1193 -1243 0
-1193 -1244 0
-1193 -1245 0
-1193 -1246 0
-1193 -1247 0
-1193 -1248 0
-1193 -1249 0
-1193 -1250 0
-1193 -1251 0
-1193 -1252 0
-1193 -1253 0
-1193 -1254 0
-1193 -1255 0
-1193 -1256 0
-1193 -1257 0
-1193 -1258 0
-1193 -1259 0
-1193 -1260 0
-1193 -1261 0
-1193 -1262 0
-1193 -1263 0
-1193 -1264 0
-1193 -1265 0
-1193 -1266 0
-1193 -1267 0
-1193 -1268 0
-1193 -1269 0
-1193 -1270 0
-1193 -1271 0
-1193 -1272 0
-1193 -1273 0
-1194 -1195 0
-1194 -1196 0
-1194 -1197 0
-1194 -1198 0
-1194 -1199 0
-1194 -1200 0
-1194 -1201 0
-1194 -1202 0
-1194 -1203 0
-1194 -1204 0
-1194 -1205 0
-1194 -1206 0
-1194 -1207 0
-1194 -1208 0
-1194 -1209 0
-1194 -1210 0
-1194 -1211 0
-1194 -1212 0
-1194 -1213 0
-1194 -1214 0
-1194 -1215 0
-1194 -1216 0
-1194 -1217 0
-1194 -1218 0
-1194 -1219 0
-1194 -1220 0
-1194 -1221 0
-1194 -1222 0
-1194 -1223 0
-1194 -1224 0
-1194 -1225 0
-1194 -1226 0
-1194 -1227 0
-1194 -1228 0
-1194 -1229 0
-1194 -1230 0
-1194 -1231 0
-1194 -1232 0
-1194 -1233 0
-1194 -1234 0
-1194 -1235 0
-1194 -1236 0
-1194 -1237 0
-1194 -1238 0
-1194 -1239 0
-1194 -1240 0
-1194 -1241 0
-1194 -1242 0
-1194 -1243 0
-1194 -1244 0
-1194 -1245 0
-1194 -1246 0
-1194 -1247 0
-1194 -1248 0
-1194 -1249 0
-1194 -1250 0
-1194 -1251 0
-1194 -1252 0
-1194 -1253 0
-1194 -1254 0
-1194 -1255 0
-1194 -1256 0
-1194 -1257 0
-1194 -1258 0
-1194 -1259 0
-1194 -1260 0
-1194 -1261 0
-1194 -1262 0
-1194 -1263 0
-1194 -1264 0
-1194 -1265 0
-1194 -1266 0
-1194 -1267 0
-1194 -1268 0
-1194 -1269 0
-1194 -1270 0
-1194 -1271 0
-1194 -1272 0
-1194 -1273 0
-1195 -1196 0
-1195 -1197 0
-1195 -1198 0
-1195 -1199 0
-1195 -1200 0
-1195 -1201 0
-1195 -1202 0
-1195 -1203 0
-1195 -1204 0
-1195 -1205 0
-1195 -1206 0
-1195 -1207 0
-1195 -1208 0
-1195 -1209 0
-1195 -1210 0
-1195 -1211 0
-1195 -1212 0
-1195 -1213 0
-1195 -1214 0
-1195 -1215 0
-1195 -1216 0
-1195 -1217 0
-1195 -1218 0
-1195 -1219 0
-1195 -1220 0
-1195 -1221 0
-1195 -1222 0
-1195 -1223 0
-1195 -1224 0
-1195 -1225 0
-1195 -1226 0
-1195 -1227 0
-1195 -1228 0
-1195 -1229 0
-1195 -1230 0
-1195 -1231 0
-1195 -1232 0
-1195 -1233 0
-1195 -1234 0
-1195 -1235 0
-1195 -1236 0
-1195 -1237 0
-1195 -1238 0
-1195 -1239 0
-1195 -1240 0
-1195 -1241 0
-1195 -1242 0
-1195 -1243 0
-1195 -1244 0
-1195 -1245 0
-1195 -1246 0
-1195 -1247 0
-1195 -1248 0
-1195 -1249 0
-1195 -1250 0
-1195 -1251 0
-1195 -1252 0
-1195 -1253 0
-1195 -1254 0
-1195 -1255 0
-1195 -1256 0
-1195 -1257 0
-1195 -1258 0
-1195 -1259 0
-1195 -1260 0
-1195 -1261 0
-1195 -1262 0
-1195 -1263 0
-1195 -1264 0
-1195 -1265 0
-1195 -1266 0
-1195 -1267 0
-1195 -1268 0
-1195 -1269 0
-1195 -1270 0
-1195 -1271 0
-1195 -1272 0
-1195 -1273 0
-1196 -1197 0
-1196 -1198 0
-1196 -1199 0
-1196 -1200 0
-1196 -1201 0
-1196 -1202 0
-1196 -1203 0
-1196 -1204 0
-1196 -1205 0
-1196 -1206 0
-1196 -1207 0
-1196 -1208 0
-1196 -1209 0
-1196 -1210 0
-1196 -1211 0
-1196 -1212 0
-1196 -1213 0
-1196 -1214 0
-1196 -1215 0
-1196 -1216 0
-1196 -1217 0
-1196 -1218 0
-1196 -1219 0
-1196 -1220 0
-1196 -1221 0
-1196 -1222 0
-1196 -1223 0
-1196 -1224 0
-1196 -1225 0
-1196 -1226 0
-1196 -1227 0
-1196 -1228 0
-1196 -1229 0
-1196 -1230 0
-1196 -1231 0
-1196 -1232 0
-1196 -1233 0
-1196 -1234 0
-1196 -1235 0
-1196 -1236 0
-1196 -1237 0
-1196 -1238 0
-1196 -1239 0
-1196 -1240 0
-1196 -1241 0
-1196 -1242 0
-1196 -1243 0
-1196 -1244 0
-1196 -1245 0
-1196 -1246 0
-1196 -1247 0
-1196 -1248 0
-1196 -1249 0
-1196 -1250 0
-1196 -1251 0
-1196 -1252 0
-1196 -1253 0
-1196 -1254 0
-1196 -1255 0
-1196 -1256 0
-1196 -1257 0
-1196 -1258 0
-1196 -1259 0
-1196 -1260 0
-1196 -1261 0
-1196 -1262 0
-1196 -1263 0
-1196 -1264 0
-1196 -1265 0
-1196 -1266 0
-1196 -1267 0
-1196 -1268 0
-1196 -1269 0
-1196 -1270 0
-1196 -1271 0
-1196 -1272 0
-1196 -1273 0
-1197 -1198 0
-1197 -1199 0
-1197 -1200 0
-1197 -1201 0
-1197 -1202 0
-1197 -1203 0
-1197 -1204 0
-1197 -1205 0
-1197 -1206 0
-1197 -1207 0
-1197 -1208 0
-1197 -1209 0
-1197 -1210 0
-1197 -1211 0
-1197 -1212 0
-1197 -1213 0
-1197 -1214 0
-1197 -1215 0
-1197 -1216 0
-1197 -1217 0
-1197 -1218 0
-1197 -1219 0
-1197 -1220 0
-1197 -1221 0
-1197 -1222 0
-1197 -1223 0
-1197 -1224 0
-1197 -1225 0
-1197 -1226 0
-1197 -1227 0
-1197 -1228 0
-1197 -1229 0
-1197 -1230 0
-1197 -1231 0
-1197 -1232 0
-1197 -1233 0
-1197 -1234 0
-1197 -1235 0
-1197 -1236 0
-1197 -1237 0
-1197 -1238 0
-1197 -1239 0
-1197 -1240 0
-1197 -1241 0
-1197 -1242 0
-1197 -1243 0
-1197 -1244 0
-1197 -1245 0
-1197 -1246 0
-1197 -1247 0
-1197 -1248 0
-1197 -1249 0
-1197 -1250 0
-1197 -1251 0
-1197 -1252 0
-1197 -1253 0
-1197 -1254 0
-1197 -1255 0
-1197 -1256 0
-1197 -1257 0
-1197 -1258 0
-1197 -1259 0
-1197 -1260 0
-1197 -1261 0
-1197 -1262 0
-1197 -1263 0
-1197 -1264 0
-1197 -1265 0
-1197 -1266 0
-1197 -1267 0
-1197 -1268 0
-1197 -1269 0
-1197 -1270 0
-1197 -1271 0
-1197 -1272 0
-1197 -1273 0
-1198 -1199 0
-1198 -1200 0
-1198 -1201 0
-1198 -1202 0
-1198 -1203 0
-1198 -1204 0
-1198 -1205 0
-1198 -1206 0
-1198 -1207 0
-1198 -1208 0
-1198 -1209 0
-1198 -1210 0
-1198 -1211 0
-1198 -1212 0
-1198 -1213 0
-1198 -1214 0
-1198 -1215 0
-1198 -1216 0
-1198 -1217 0
-1198 -1218 0
-1198 -1219 0
-1198 -1220 0
-1198 -1221 0
-1198 -1222 0
-1198 -1223 0
-1198 -1224 0
-1198 -1225 0
-1198 -1226 0
-1198 -1227 0
-1198 -1228 0
-1198 -1229 0
-1198 -1230 0
-1198 -1231 0
-1198 -1232 0
-1198 -1233 0
-1198 -1234 0
-1198 -1235 0
-1198 -1236 0
-1198 -1237 0
-1198 -1238 0
-1198 -1239 0
-1198 -1240 0
-1198 -1241 0
-1198 -1242 0
-1198 -1243 0
-1198 -1244 0
-1198 -1245 0
-1198 -1246 0
-1198 -1247 0
-1198 -1248 0
-1198 -1249 0
-1198 -1250 0
-1198 -1251 0
-1198 -1252 0
-1198 -1253 0
-1198 -1254 0
-1198 -1255 0
-1198 -1256 0
-1198 -1257 0
-1198 -1258 0
-1198 -1259 0
-1198 -1260 0
-1198 -1261 0
-1198 -1262 0
-1198 -1263 0
-1198 -1264 0
-1198 -1265 0
-1198 -1266 0
-1198 -1267 0
-1198 -1268 0
-1198 -1269 0
-1198 -1270 0
-1198 -1271 0
-1198 -1272 0
-1198 -1273 0
-1199 -1200 0
-1199 -1201 0
-1199 -1202 0
-1199 -1203 0
-1199 -1204 0
-1199 -1205 0
-1199 -1206 0
-1199 -1207 0
-1199 -1208 0
-1199 -1209 0
-1199 -1210 0
-1199 -1211 0
-1199 -1212 0
-1199 -1213 0
-1199 -1214 0
-1199 -1215 0
-1199 -1216 0
-1199 -1217 0
-1199 -1218 0
-1199 -1219 0
-1199 -1220 0
-1199 -1221 0
-1199 -1222 0
-1199 -1223 0
-1199 -1224 0
-1199 -1225 0
-1199 -1226 0
-1199 -1227 0
-1199 -1228 0
-1199 -1229 0
-1199 -1230 0
-1199 -1231 0
-1199 -1232 0
-1199 -1233 0
-1199 -1234 0
-1199 -1235 0
-1199 -1236 0
-1199 -1237 0
-1199 -1238 0
-1199 -1239 0
-1199 -1240 0
-1199 -1241 0
-1199 -1242 0
-1199 -1243 0
-1199 -1244 0
-1199 -1245 0
-1199 -1246 0
-1199 -1247 0
-1199 -1248 0
-1199 -1249 0
-1199 -1250 0
-1199 -1251 0
-1199 -1252 0
-1199 -1253 0
-1199 -1254 0
-1199 -1255 0
-1199 -1256 0
-1199 -1257 0
-1199 -1258 0
-1199 -1259 0
-1199 -1260 0
-1199 -1261 0
-1199 -1262 0
-1199 -1263 0
-1199 -1264 0
-1199 -1265 0
-1199 -1266 0
-1199 -1267 0
-1199 -1268 0
-1199 -1269 0
-1199 -1270 0
-1199 -1271 0
-1199 -1272 0
-1199 -1273 0
-1200 -1201 0
-1200 -1202 0
-1200 -1203 0
-1200 -1204 0
-1200 -1205 0
-1200 -1206 0
-1200 -1207 0
-1200 -1208 0
-1200 -1209 0
-1200 -1210 0
-1200 -1211 0
-1200 -1212 0
-1200 -1213 0
-1200 -1214 0
-1200 -1215 0
-1200 -1216 0
-1200 -1217 0
-1200 -1218 0
-1200 -1219 0
-1200 -1220 0
-1200 -1221 0
-1200 -1222 0
-1200 -1223 0
-1200 -1224 0
-1200 -1225 0
-1200 -1226 0
-1200 -1227 0
-1200 -1228 0
-1200 -1229 0
-1200 -1230 0
-1200 -1231 0
-1200 -1232 0
-1200 -1233 0
-1200 -1234 0
-1200 -1235 0
-1200 -1236 0
-1200 -1237 0
-1200 -1238 0
-1200 -1239 0
-1200 -1240 0
-1200 -1241 0
-1200 -1242 0
-1200 -1243 0
-1200 -1244 0
-1200 -1245 0
-1200 -1246 0
-1200 -1247 0
-1200 -1248 0
-1200 -1249 0
-1200 -1250 0
-1200 -1251 0
-1200 -1252 0
-1200 -1253 0
-1200 -1254 0
-1200 -1255 0
-1200 -1256 0
-1200 -1257 0
-1200 -1258 0
-1200 -1259 0
-1200 -1260 0
-1200 -1261 0
-1200 -1262 0
-1200 -1263 0
-1200 -1264 0
-1200 -1265 0
-1200 -1266 0
-1200 -1267 0
-1200 -1268 0
-1200 -1269 0
-1200 -1270 0
-1200 -1271 0
-1200 -1272 0
-1200 -1273 0
-1201 -1202 0
-1201 -1203 0
-1201 -1204 0
-1201 -1205 0
-1201 -1206 0
-1201 -1207 0
-1201 -1208 0
-1201 -1209 0
-1201 -1210 0
-1201 -1211 0
-1201 -1212 0
-1201 -1213 0
-1201 -1214 0
-1201 -1215 0
-1201 -1216 0
-1201 -1217 0
-1201 -1218 0
-1201 -1219 0
-1201 -1220 0
-1201 -1221 0
-1201 -1222 0
-1201 -1223 0
-1201 -1224 0
-1201 -1225 0
-1201 -1226 0
-1201 -1227 0
-1201 -1228 0
-1201 -1229 0
-1201 -1230 0
-1201 -1231 0
-1201 -1232 0
-1201 -1233 0
-1201 -1234 0
-1201 -1235 0
-1201 -1236 0
-1201 -1237 0
-1201 -1238 0
-1201 -1239 0
-1201 -1240 0
-1201 -1241 0
-1201 -1242 0
-1201 -1243 0
-1201 -1244 0
-1201 -1245 0
-1201 -1246 0
-1201 -1247 0
-1201 -1248 0
-1201 -1249 0
-1201 -1250 0
-1201 -1251 0
-1201 -1252 0
-1201 -1253 0
-1201 -1254 0
-1201 -1255 0
-1201 -1256 0
-1201 -1257 0
-1201 -1258 0
-1201 -1259 0
-1201 -1260 0
-1201 -1261 0
-1201 -1262 0
-1201 -1263 0
-1201 -1264 0
-1201 -1265 0
-1201 -1266 0
-1201 -1267 0
-1201 -1268 0
-1201 -1269 0
-1201 -1270 0
-1201 -1271 0
-1201 -1272 0
-1201 -1273 0
-1202 -1203 0
-1202 -1204 0
-1202 -1205 0
-1202 -1206 0
-1202 -1207 0
-1202 -1208 0
-1202 -1209 0
-1202 -1210 0
-1202 -1211 0
-1202 -1212 0
-1202 -1213 0
-1202 -1214 0
-1202 -1215 0
-1202 -1216 0
-1202 -1217 0
-1202 -1218 0
-1202 -1219 0
-1202 -1220 0
-1202 -1221 0
-1202 -1222 0
-1202 -1223 0
-1202 -1224 0
-1202 -1225 0
-1202 -1226 0
-1202 -1227 0
-1202 -1228 0
-1202 -1229 0
-1202 -1230 0
-1202 -1231 0
-1202 -1232 0
-1202 -1233 0
-1202 -1234 0
-1202 -1235 0
-1202 -1236 0
-1202 -1237 0
-1202 -1238 0
-1202 -1239 0
-1202 -1240 0
-1202 -1241 0
-1202 -1242 0
-1202 -1243 0
-1202 -1244 0
-1202 -1245 0
-1202 -1246 0
-1202 -1247 0
-1202 -1248 0
-1202 -1249 0
-1202 -1250 0
-1202 -1251 0
-1202 -1252 0
-1202 -1253 0
-1202 -1254 0
-1202 -1255 0
-1202 -1256 0
-1202 -1257 0
-1202 -1258 0
-1202 -1259 0
-1202 -1260 0
-1202 -1261 0
-1202 -1262 0
-1202 -1263 0
-1202 -1264 0
-1202 -1265 0
-1202 -1266 0
-1202 -1267 0
-1202 -1268 0
-1202 -1269 0
-1202 -1270 0
-1202 -1271 0
-1202 -1272 0
-1202 -1273 0
-1203 -1204 0
-1203 -1205 0
-1203 -1206 0
-1203 -1207 0
-1203 -1208 0
-1203 -1209 0
-1203 -1210 0
-1203 -1211 0
-1203 -1212 0
-1203 -1213 0
-1203 -1214 0
-1203 -1215 0
-1203 -1216 0
-1203 -1217 0
-1203 -1218 0
-1203 -1219 0
-1203 -1220 0
-1203 -1221 0
-1203 -1222 0
-1203 -1223 0
-1203 -1224 0
-1203 -1225 0
-1203 -1226 0
-1203 -1227 0
-1203 -1228 0
-1203 -1229 0
-1203 -1230 0
-1203 -1231 0
-1203 -1232 0
-1203 -1233 0
-1203 -1234 0
-1203 -1235 0
-1203 -1236 0
-1203 -1237 0
-1203 -1238 0
-1203 -1239 0
-1203 -1240 0
-1203 -1241 0
-1203 -1242 0
-1203 -1243 0
-1203 -1244 0
-1203 -1245 0
-1203 -1246 0
-1203 -1247 0
-1203 -1248 0
-1203 -1249 0
-1203 -1250 0
-1203 -1251 0
-1203 -1252 0
-1203 -1253 0
-1203 -1254 0
-1203 -1255 0
-1203 -1256 0
-1203 -1257 0
-1203 -1258 0
-1203 -1259 0
-1203 -1260 0
-1203 -1261 0
-1203 -1262 0
-1203 -1263 0
-1203 -1264 0
-1203 -1265 0
-1203 -1266 0
-1203 -1267 0
-1203 -1268 0
-1203 -1269 0
-1203 -1270 0
-1203 -1271 0
-1203 -1272 0
-1203 -1273 0
-1204 -1205 0
-1204 -1206 0
-1204 -1207 0
-1204 -1208 0
-1204 -1209 0
-1204 -1210 0
-1204 -1211 0
-1204 -1212 0
-1204 -1213 0
-1204 -1214 0
-1204 -1215 0
-1204 -1216 0
-1204 -1217 0
-1204 -1218 0
-1204 -1219 0
-1204 -1220 0
-1204 -1221 0
-1204 -1222 0
-1204 -1223 0
-1204 -1224 0
-1204 -1225 0
-1204 -1226 0
-1204 -1227 0
-1204 -1228 0
-1204 -1229 0
-1204 -1230 0
-1204 -1231 0
-1204 -1232 0
-1204 -1233 0
-1204 -1234 0
-1204 -1235 0
-1204 -1236 0
-1204 -1237 0
-1204 -1238 0
-1204 -1239 0
-1204 -1240 0
-1204 -1241 0
-1204 -1242 0
-1204 -1243 0
-1204 -1244 0
-1204 -1245 0
-1204 -1246 0
-1204 -1247 0
-1204 -1248 0
-1204 -1249 0
-1204 -1250 0
-1204 -1251 0
-1204 -1252 0
-1204 -1253 0
-1204 -1254 0
-1204 -1255 0
-1204 -1256 0
-1204 -1257 0
-1204 -1258 0
-1204 -1259 0
-1204 -1260 0
-1204 -1261 0
-1204 -1262 0
-1204 -1263 0
-1204 -1264 0
-1204 -1265 0
-1204 -1266 0
-1204 -1267 0
-1204 -1268 0
-1204 -1269 0
-1204 -1270 0
-1204 -1271 0
-1204 -1272 0
-1204 -1273 0
-1205 -1206 0
-1205 -1207 0
-1205 -1208 0
-1205 -1209 0
-1205 -1210 0
-1205 -1211 0
-1205 -1212 0
-1205 -1213 0
-1205 -1214 0
-1205 -1215 0
-1205 -1216 0
-1205 -1217 0
-1205 -1218 0
-1205 -1219 0
-1205 -1220 0
-1205 -1221 0
-1205 -1222 0
-1205 -1223 0
-1205 -1224 0
-1205 -1225 0
-1205 -1226 0
-1205 -1227 0
-1205 -1228 0
-1205 -1229 0
-1205 -1230 0
-1205 -1231 0
-1205 -1232 0
-1205 -1233 0
-1205 -1234 0
-1205 -1235 0
-1205 -1236 0
-1205 -1237 0
-1205 -1238 0
-1205 -1239 0
-1205 -1240 0
-1205 -1241 0
-1205 -1242 0
-1205 -1243 0
-1205 -1244 0
-1205 -1245 0
-1205 -1246 0
-1205 -1247 0
-1205 -1248 0
-1205 -1249 0
-1205 -1250 0
-1205 -1251 0
-1205 -1252 0
-1205 -1253 0
-1205 -1254 0
-1205 -1255 0
-1205 -1256 0
-1205 -1257 0
-1205 -1258 0
-1205 -1259 0
-1205 -1260 0
-1205 -1261 0
-1205 -1262 0
-1205 -1263 0
-1205 -1264 0
-1205 -1265 0
-1205 -1266 0
-1205 -1267 0
-1205 -1268 0
-1205 -1269 0
-1205 -1270 0
-1205 -1271 0
-1205 -1272 0
-1205 -1273 0
-1206 -1207 0
-1206 -1208 0
-1206 -1209 0
-1206 -1210 0
-1206 -1211 0
-1206 -1212 0
-1206 -1213 0
-1206 -1214 0
-1206 -1215 0
-1206 -1216 0
-1206 -1217 0
-1206 -1218 0
-1206 -1219 0
-1206 -1220 0
-1206 -1221 0
-1206 -1222 0
-1206 -1223 0
-1206 -1224 0
-1206 -1225 0
-1206 -1226 0
-1206 -1227 0
-1206 -1228 0
-1206 -1229 0
-1206 -1230 0
-1206 -1231 0
-1206 -1232 0
-1206 -1233 0
-1206 -1234 0
-1206 -1235 0
-1206 -1236 0
-1206 -1237 0
-1206 -1238 0
-1206 -1239 0
-1206 -1240 0
-1206 -1241 0
-1206 -1242 0
-1206 -1243 0
-1206 -1244 0
-1206 -1245 0
-1206 -1246 0
-1206 -1247 0
-1206 -1248 0
-1206 -1249 0
-1206 -1250 0
-1206 -1251 0
-1206 -1252 0
-1206 -1253 0
-1206 -1254 0
-1206 -1255 0
-1206 -1256 0
-1206 -1257 0
-1206 -1258 0
-1206 -1259 0
-1206 -1260 0
-1206 -1261 0
-1206 -1262 0
-1206 -1263 0
-1206 -1264 0
-1206 -1265 0
-1206 -1266 0
-1206 -1267 0
-1206 -1268 0
-1206 -1269 0
-1206 -1270 0
-1206 -1271 0
-1206 -1272 0
-1206 -1273 0
-1207 -1208 0
-1207 -1209 0
-1207 -1210 0
-1207 -1211 0
-1207 -1212 0
-1207 -1213 0
-1207 -1214 0
-1207 -1215 0
-1207 -1216 0
-1207 -1217 0
-1207 -1218 0
-1207 -1219 0
-1207 -1220 0
-1207 -1221 0
-1207 -1222 0
-1207 -1223 0
-1207 -1224 0
-1207 -1225 0
-1207 -1226 0
-1207 -1227 0
-1207 -1228 0
-1207 -1229 0
-1207 -1230 0
-1207 -1231 0
-1207 -1232 0
-1207 -1233 0
-1207 -1234 0
-1207 -1235 0
-1207 -1236 0
-1207 -1237 0
-1207 -1238 0
-1207 -1239 0
-1207 -1240 0
-1207 -1241 0
-1207 -1242 0
-1207 -1243 0
-1207 -1244 0
-1207 -1245 0
-1207 -1246 0
-1207 -1247 0
-1207 -1248 0
-1207 -1249 0
-1207 -1250 0
-1207 -1251 0
-1207 -1252 0
-1207 -1253 0
-1207 -1254 0
-1207 -1255 0
-1207 -1256 0
-1207 -1257 0
-1207 -1258 0
-1207 -1259 0
-1207 -1260 0
-1207 -1261 0
-1207 -1262 0
-1207 -1263 0
-1207 -1264 0
-1207 -1265 0
-1207 -1266 0
-1207 -1267 0
-1207 -1268 0
-1207 -1269 0
-1207 -1270 0
-1207 -1271 0
-1207 -1272 0
-1207 -1273 0
-1208 -1209 0
-1208 -1210 0
-1208 -1211 0
-1208 -1212 0
-1208 -1213 0
-1208 -1214 0
-1208 -1215 0
-1208 -1216 0
-1208 -1217 0
-1208 -1218 0
-1208 -1219 0
-1208 -1220 0
-1208 -1221 0
-1208 -1222 0
-1208 -1223 0
-1208 -1224 0
-1208 -1225 0
-1208 -1226 0
-1208 -1227 0
-1208 -1228 0
-1208 -1229 0
-1208 -1230 0
-1208 -1231 0
-1208 -1232 0
-1208 -1233 0
-1208 -1234 0
-1208 -1235 0
-1208 -1236 0
-1208 -1237 0
-1208 -1238 0
-1208 -1239 0
-1208 -1240 0
-1208 -1241 0
-1208 -1242 0
-1208 -1243 0
-1208 -1244 0
-1208 -1245 0
-1208 -1246 0
-1208 -1247 0
-1208 -1248 0
-1208 -1249 0
-1208 -1250 0
-1208 -1251 0
-1208 -1252 0
-1208 -1253 0
-1208 -1254 0
-1208 -1255 0
-1208 -1256 0
-1208 -1257 0
-1208 -1258 0
-1208 -1259 0
-1208 -1260 0
-1208 -1261 0
-1208 -1262 0
-1208 -1263 0
-1208 -1264 0
-1208 -1265 0
-1208 -1266 0
-1208 -1267 0
-1208 -1268 0
-1208 -1269 0
-1208 -1270 0
-1208 -1271 0
-1208 -1272 0
-1208 -1273 0
-1209 -1210 0
-1209 -1211 0
-1209 -1212 0
-1209 -1213 0
-1209 -1214 0
-1209 -1215 0
-1209 -1216 0
-1209 -1217 0
-1209 -1218 0
-1209 -1219 0
-1209 -1220 0
-1209 -1221 0
-1209 -1222 0
-1209 -1223 0
-1209 -1224 0
-1209 -1225 0
-1209 -1226 0
-1209 -1227 0
-1209 -1228 0
-1209 -1229 0
-1209 -1230 0
-1209 -1231 0
-1209 -1232 0
-1209 -1233 0
-1209 -1234 0
-1209 -1235 0
-1209 -1236 0
-1209 -1237 0
-1209 -1238 0
-1209 -1239 0
-1209 -1240 0
-1209 -1241 0
-1209 -1242 0
-1209 -1243 0
-1209 -1244 0
-1209 -1245 0
-1209 -1246 0
-1209 -1247 0
-1209 -1248 0
-1209 -1249 0
-1209 -1250 0
-1209 -1251 0
-1209 -1252 0
-1209 -1253 0
-1209 -1254 0
-1209 -1255 0
-1209 -1256 0
-1209 -1257 0
-1209 -1258 0
-1209 -1259 0
-1209 -1260 0
-1209 -1261 0
-1209 -1262 0
-1209 -1263 0
-1209 -1264 0
-1209 -1265 0
-1209 -1266 0
-1209 -1267 0
-1209 -1268 0
-1209 -1269 0
-1209 -1270 0
-1209 -1271 0
-1209 -1272 0
-1209 -1273 0
-1210 -1211 0
-1210 -1212 0
-1210 -1213 0
-1210 -1214 0
-1210 -1215 0
-1210 -1216 0
-1210 -1217 0
-1210 -1218 0
-1210 -1219 0
-1210 -1220 0
-1210 -1221 0
-1210 -1222 0
-1210 -1223 0
-1210 -1224 0
-1210 -1225 0
-1210 -1226 0
-1210 -1227 0
-1210 -1228 0
-1210 -1229 0
-1210 -1230 0
-1210 -1231 0
-1210 -1232 0
-1210 -1233 0
-1210 -1234 0
-1210 -1235 0
-1210 -1236 0
-1210 -1237 0
-1210 -1238 0
-1210 -1239 0
-1210 -1240 0
-1210 -1241 0
-1210 -1242 0
-1210 -1243 0
-1210 -1244 0
-1210 -1245 0
-1210 -1246 0
-1210 -1247 0
-1210 -1248 0
-1210 -1249 0
-1210 -1250 0
-1210 -1251 0
-1210 -1252 0
-1210 -1253 0
-1210 -1254 0
-1210 -1255 0
-1210 -1256 0
-1210 -1257 0
-1210 -1258 0
-1210 -1259 0
-1210 -1260 0
-1210 -1261 0
-1210 -1262 0
-1210 -1263 0
-1210 -1264 0
-1210 -1265 0
-1210 -1266 0
-1210 -1267 0
-1210 -1268 0
-1210 -1269 0
-1210 -1270 0
-1210 -1271 0
-1210 -1272 0
-1210 -1273 0
-1211 -1212 0
-1211 -1213 0
-1211 -1214 0
-1211 -1215 0
-1211 -1216 0
-1211 -1217 0
-1211 -1218 0
-1211 -1219 0
-1211 -1220 0
-1211 -1221 0
-1211 -1222 0
-1211 -1223 0
-1211 -1224 0
-1211 -1225 0
-1211 -1226 0
-1211 -1227 0
-1211 -1228 0
-1211 -1229 0
-1211 -1230 0
-1211 -1231 0
-1211 -1232 0
-1211 -1233 0
-1211 -1234 0
-1211 -1235 0
-1211 -1236 0
-1211 -1237 0
-1211 -1238 0
-1211 -1239 0
-1211 -1240 0
-1211 -1241 0
-1211 -1242 0
-1211 -1243 0
-1211 -1244 0
-1211 -1245 0
-1211 -1246 0
-1211 -1247 0
-1211 -1248 0
-1211 -1249 0
-1211 -1250 0
-1211 -1251 0
-1211 -1252 0
-1211 -1253 0
-1211 -1254 0
-1211 -1255 0
-1211 -1256 0
-1211 -1257 0
-1211 -1258 0
-1211 -1259 0
-1211 -1260 0
-1211 -1261 0
-1211 -1262 0
-1211 -1263 0
-1211 -1264 0
-1211 -1265 0
-1211 -1266 0
-1211 -1267 0
-1211 -1268 0
-1211 -1269 0
-1211 -1270 0
-1211 -1271 0
-1211 -1272 0
-1211 -1273 0
-1212 -1213 0
-1212 -1214 0
-1212 -1215 0
-1212 -1216 0
-1212 -1217 0
-1212 -1218 0
-1212 -1219 0
-1212 -1220 0
-1212 -1221 0
-1212 -1222 0
-1212 -1223 0
-1212 -1224 0
-1212 -1225 0
-1212 -1226 0
-1212 -1227 0
-1212 -1228 0
-1212 -1229 0
-1212 -1230 0
-1212 -1231 0
-1212 -1232 0
-1212 -1233 0
-1212 -1234 0
-1212 -1235 0
-1212 -1236 0
-1212 -1237 0
-1212 -1238 0
-1212 -1239 0
-1212 -1240 0
-1212 -1241 0
-1212 -1242 0
-1212 -1243 0
-1212 -1244 0
-1212 -1245 0
-1212 -1246 0
-1212 -1247 0
-1212 -1248 0
-1212 -1249 0
-1212 -1250 0
-1212 -1251 0
-1212 -1252 0
-1212 -1253 0
-1212 -1254 0
-1212 -1255 0
-1212 -1256 0
-1212 -1257 0
-1212 -1258 0
-1212 -1259 0
-1212 -1260 0
-1212 -1261 0
-1212 -1262 0
-1212 -1263 0
-1212 -1264 0
-1212 -1265 0
-1212 -1266 0
-1212 -1267 0
-1212 -1268 0
-1212 -1269 0
-1212 -1270 0
-1212 -1271 0
-1212 -1272 0
-1212 -1273 0
-1213 -1214 0
-1213 -1215 0
-1213 -1216 0
-1213 -1217 0
-1213 -1218 0
-1213 -1219 0
-1213 -1220 0
-1213 -1221 0
-1213 -1222 0
-1213 -1223 0
-1213 -1224 0
-1213 -1225 0
-1213 -1226 0
-1213 -1227 0
-1213 -1228 0
-1213 -1229 0
-1213 -1230 0
-1213 -1231 0
-1213 -1232 0
-1213 -1233 0
-1213 -1234 0
-1213 -1235 0
-1213 -1236 0
-1213 -1237 0
-1213 -1238 0
-1213 -1239 0
-1213 -1240 0
-1213 -1241 0
-1213 -1242 0
-1213 -1243 0
-1213 -1244 0
-1213 -1245 0
-1213 -1246 0
-1213 -1247 0
-1213 -1248 0
-1213 -1249 0
-1213 -1250 0
-1213 -1251 0
-1213 -1252 0
-1213 -1253 0
-1213 -1254 0
-1213 -1255 0
-1213 -1256 0
-1213 -1257 0
-1213 -1258 0
-1213 -1259 0
-1213 -1260 0
-1213 -1261 0
-1213 -1262 0
-1213 -1263 0
-1213 -1264 0
-1213 -1265 0
-1213 -1266 0
-1213 -1267 0
-1213 -1268 0
-1213 -1269 0
-1213 -1270 0
-1213 -1271 0
-1213 -1272 0
-1213 -1273 0
-1214 -1215 0
-1214 -1216 0
-1214 -1217 0
-1214 -1218 0
-1214 -1219 0
-1214 -1220 0
-1214 -1221 0
-1214 -1222 0
-1214 -1223 0
-1214 -1224 0
-1214 -1225 0
-1214 -1226 0
-1214 -1227 0
-1214 -1228 0
-1214 -1229 0
-1214 -1230 0
-1214 -1231 0
-1214 -1232 0
-1214 -1233 0
-1214 -1234 0
-1214 -1235 0
-1214 -1236 0
-1214 -1237 0
-1214 -1238 0
-1214 -1239 0
-1214 -1240 0
-1214 -1241 0
-1214 -1242 0
-1214 -1243 0
-1214 -1244 0
-1214 -1245 0
-1214 -1246 0
-1214 -1247 0
-1214 -1248 0
-1214 -1249 0
-1214 -1250 0
-1214 -1251 0
-1214 -1252 0
-1214 -1253 0
-1214 -1254 0
-1214 -1255 0
-1214 -1256 0
-1214 -1257 0
-1214 -1258 0
-1214 -1259 0
-1214 -1260 0
-1214 -1261 0
-1214 -1262 0
-1214 -1263 0
-1214 -1264 0
-1214 -1265 0
-1214 -1266 0
-1214 -1267 0
-1214 -1268 0
-1214 -1269 0
-1214 -1270 0
-1214 -1271 0
-1214 -1272 0
-1214 -1273 0
-1215 -1216 0
-1215 -1217 0
-1215 -1218 0
-1215 -1219 0
-1215 -1220 0
-1215 -1221 0
-1215 -1222 0
-1215 -1223 0
-1215 -1224 0
-1215 -1225 0
-1215 -1226 0
-1215 -1227 0
-1215 -1228 0
-1215 -1229 0
-1215 -1230 0
-1215 -1231 0
-1215 -1232 0
-1215 -1233 0
-1215 -1234 0
-1215 -1235 0
-1215 -1236 0
-1215 -1237 0
-1215 -1238 0
-1215 -1239 0
-1215 -1240 0
-1215 -1241 0
-1215 -1242 0
-1215 -1243 0
-1215 -1244 0
-1215 -1245 0
-1215 -1246 0
-1215 -1247 0
-1215 -1248 0
-1215 -1249 0
-1215 -1250 0
-1215 -1251 0
-1215 -1252 0
-1215 -1253 0
-1215 -1254 0
-1215 -1255 0
-1215 -1256 0
-1215 -1257 0
-1215 -1258 0
-1215 -1259 0
-1215 -1260 0
-1215 -1261 0
-1215 -1262 0
-1215 -1263 0
-1215 -1264 0
-1215 -1265 0
-1215 -1266 0
-1215 -1267 0
-1215 -1268 0
-1215 -1269 0
-1215 -1270 0
-1215 -1271 0
-1215 -1272 0
-1215 -1273 0
-1216 -1217 0
-1216 -1218 0
-1216 -1219 0
-1216 -1220 0
-1216 -1221 0
-1216 -1222 0
-1216 -1223 0
-1216 -1224 0
-1216 -1225 0
-1216 -1226 0
-1216 -1227 0
-1216 -1228 0
-1216 -1229 0
-1216 -1230 0
-1216 -1231 0
-1216 -1232 0
-1216 -1233 0
-1216 -1234 0
-1216 -1235 0
-1216 -1236 0
-1216 -1237 0
-1216 -1238 0
-1216 -1239 0
-1216 -1240 0
-1216 -1241 0
-1216 -1242 0
-1216 -1243 0
-1216 -1244 0
-1216 -1245 0
-1216 -1246 0
-1216 -1247 0
-1216 -1248 0
-1216 -1249 0
-1216 -1250 0
-1216 -1251 0
-1216 -1252 0
-1216 -1253 0
-1216 -1254 0
-1216 -1255 0
-1216 -1256 0
-1216 -1257 0
-1216 -1258 0
-1216 -1259 0
-1216 -1260 0
-1216 -1261 0
-1216 -1262 0
-1216 -1263 0
-1216 -1264 0
-1216 -1265 0
-1216 -1266 0
-1216 -1267 0
-1216 -1268 0
-1216 -1269 0
-1216 -1270 0
-1216 -1271 0
-1216 -1272 0
-1216 -1273 0
-1217 -1218 0
-1217 -1219 0
-1217 -1220 0
-1217 -1221 0
-1217 -1222 0
-1217 -1223 0
-1217 -1224 0
-1217 -1225 0
-1217 -1226 0
-1217 -1227 0
-1217 -1228 0
-1217 -1229 0
-1217 -1230 0
-1217 -1231 0
-1217 -1232 0
-1217 -1233 0
-1217 -1234 0
-1217 -1235 0
-1217 -1236 0
-1217 -1237 0
-1217 -1238 0
-1217 -1239 0
-1217 -1240 0
-1217 -1241 0
-1217 -1242 0
-1217 -1243 0
-1217 -1244 0
-1217 -1245 0
-1217 -1246 0
-1217 -1247 0
-1217 -1248 0
-1217 -1249 0
-1217 -1250 0
-1217 -1251 0
-1217 -1252 0
-1217 -1253 0
-1217 -1254 0
-1217 -1255 0
-1217 -1256 0
-1217 -1257 0
-1217 -1258 0
-1217 -1259 0
-1217 -1260 0
-1217 -1261 0
-1217 -1262 0
-1217 -1263 0
-1217 -1264 0
-1217 -1265 0
-1217 -1266 0
-1217 -1267 0
-1217 -1268 0
-1217 -1269 0
-1217 -1270 0
-1217 -1271 0
-1217 -1272 0
-1217 -1273 0
-1218 -1219 0
-1218 -1220 0
-1218 -1221 0
-1218 -1222 0
-1218 -1223 0
-1218 -1224 0
-1218 -1225 0
-1218 -1226 0
-1218 -1227 0
-1218 -1228 0
-1218 -1229 0
-1218 -1230 0
-1218 -1231 0
-1218 -1232 0
-1218 -1233 0
-1218 -1234 0
-1218 -1235 0
-1218 -1236 0
-1218 -1237 0
-1218 -1238 0
-1218 -1239 0
-1218 -1240 0
-1218 -1241 0
-1218 -1242 0
-1218 -1243 0
-1218 -1244 0
-1218 -1245 0
-1218 -1246 0
-1218 -1247 0
-1218 -1248 0
-1218 -1249 0
-1218 -1250 0
-1218 -1251 0
-1218 -1252 0
-1218 -1253 0
-1218 -1254 0
-1218 -1255 0
-1218 -1256 0
-1218 -1257 0
-1218 -1258 0
-1218 -1259 0
-1218 -1260 0
-1218 -1261 0
-1218 -1262 0
-1218 -1263 0
-1218 -1264 0
-1218 -1265 0
-1218 -1266 0
-1218 -1267 0
-1218 -1268 0
-1218 -1269 0
-1218 -1270 0
-1218 -1271 0
-1218 -1272 0
-1218 -1273 0
-1219 -1220 0
-1219 -1221 0
-1219 -1222 0
-1219 -1223 0
-1219 -1224 0
-1219 -1225 0
-1219 -1226 0
-1219 -1227 0
-1219 -1228 0
-1219 -1229 0
-1219 -1230 0
-1219 -1231 0
-1219 -1232 0
-1219 -1233 0
-1219 -1234 0
-1219 -1235 0
-1219 -1236 0
-1219 -1237 0
-1219 -1238 0
-1219 -1239 0
-1219 -1240 0
-1219 -1241 0
-1219 -1242 0
-1219 -1243 0
-1219 -1244 0
-1219 -1245 0
-1219 -1246 0
-1219 -1247 0
-1219 -1248 0
-1219 -1249 0
-1219 -1250 0
-1219 -1251 0
-1219 -1252 0
-1219 -1253 0
-1219 -1254 0
-1219 -1255 0
-1219 -1256 0
-1219 -1257 0
-1219 -1258 0
-1219 -1259 0
-1219 -1260 0
-1219 -1261 0
-1219 -1262 0
-1219 -1263 0
-1219 -1264 0
-1219 -1265 0
-1219 -1266 0
-1219 -1267 0
-1219 -1268 0
-1219 -1269 0
-1219 -1270 0
-1219 -1271 0
-1219 -1272 0
-1219 -1273 0
-1220 -1221 0
-1220 -1222 0
-1220 -1223 0
-1220 -1224 0
-1220 -1225 0
-1220 -1226 0
-1220 -1227 0
-1220 -1228 0
-1220 -1229 0
-1220 -1230 0
-1220 -1231 0
-1220 -1232 0
-1220 -1233 0
-1220 -1234 0
-1220 -1235 0
-1220 -1236 0
-1220 -1237 0
-1220 -1238 0
-1220 -1239 0
-1220 -1240 0
-1220 -1241 0
-1220 -1242 0
-1220 -1243 0
-1220 -1244 0
-1220 -1245 0
-1220 -1246 0
-1220 -1247 0
-1220 -1248 0
-1220 -1249 0
-1220 -1250 0
-1220 -1251 0
-1220 -1252 0
-1220 -1253 0
-1220 -1254 0
-1220 -1255 0
-1220 -1256 0
-1220 -1257 0
-1220 -1258 0
-1220 -1259 0
-1220 -1260 0
-1220 -1261 0
-1220 -1262 0
-1220 -1263 0
-1220 -1264 0
-1220 -1265 0
-1220 -1266 0
-1220 -1267 0
-1220 -1268 0
-1220 -1269 0
-1220 -1270 0
-1220 -1271 0
-1220 -1272 0
-1220 -1273 0
-1221 -1222 0
-1221 -1223 0
-1221 -1224 0
-1221 -1225 0
-1221 -1226 0
-1221 -1227 0
-1221 -1228 0
-1221 -1229 0
-1221 -1230 0
-1221 -1231 0
-1221 -1232 0
-1221 -1233 0
-1221 -1234 0
-1221 -1235 0
-1221 -1236 0
-1221 -1237 0
-1221 -1238 0
-1221 -1239 0
-1221 -1240 0
-1221 -1241 0
-1221 -1242 0
-1221 -1243 0
-1221 -1244 0
-1221 -1245 0
-1221 -1246 0
-1221 -1247 0
-1221 -1248 0
-1221 -1249 0
-1221 -1250 0
-1221 -1251 0
-1221 -1252 0
-1221 -1253 0
-1221 -1254 0
-1221 -1255 0
-1221 -1256 0
-1221 -1257 0
-1221 -1258 0
-1221 -1259 0
-1221 -1260 0
-1221 -1261 0
-1221 -1262 0
-1221 -1263 0
-1221 -1264 0
-1221 -1265 0
-1221 -1266 0
-1221 -1267 0
-1221 -1268 0
-1221 -1269 0
-1221 -1270 0
-1221 -1271 0
-1221 -1272 0
-1221 -1273 0
-1222 -1223 0
-1222 -1224 0
-1222 -1225 0
-1222 -1226 0
-1222 -1227 0
-1222 -1228 0
-1222 -1229 0
-1222 -1230 0
-1222 -1231 0
-1222 -1232 0
-1222 -1233 0
-1222 -1234 0
-1222 -1235 0
-1222 -1236 0
-1222 -1237 0
-1222 -1238 0
-1222 -1239 0
-1222 -1240 0
-1222 -1241 0
-1222 -1242 0
-1222 -1243 0
-1222 -1244 0
-1222 -1245 0
-1222 -1246 0
-1222 -1247 0
-1222 -1248 0
-1222 -1249 0
-1222 -1250 0
-1222 -1251 0
-1222 -1252 0
-1222 -1253 0
-1222 -1254 0
-1222 -1255 0
-1222 -1256 0
-1222 -1257 0
-1222 -1258 0
-1222 -1259 0
-1222 -1260 0
-1222 -1261 0
-1222 -1262 0
-1222 -1263 0
-1222 -1264 0
-1222 -1265 0
-1222 -1266 0
-1222 -1267 0
-1222 -1268 0
-1222 -1269 0
-1222 -1270 0
-1222 -1271 0
-1222 -1272 0
-1222 -1273 0
-1223 -1224 0
-1223 -1225 0
-1223 -1226 0
-1223 -1227 0
-1223 -1228 0
-1223 -1229 0
-1223 -1230 0
-1223 -1231 0
-1223 -1232 0
-1223 -1233 0
-1223 -1234 0
-1223 -1235 0
-1223 -1236 0
-1223 -1237 0
-1223 -1238 0
-1223 -1239 0
-1223 -1240 0
-1223 -1241 0
-1223 -1242 0
-1223 -1243 0
-1223 -1244 0
-1223 -1245 0
-1223 -1246 0
-1223 -1247 0
-1223 -1248 0
-1223 -1249 0
-1223 -1250 0
-1223 -1251 0
-1223 -1252 0
-1223 -1253 0
-1223 -1254 0
-1223 -1255 0
-1223 -1256 0
-1223 -1257 0
-1223 -1258 0
-1223 -1259 0
-1223 -1260 0
-1223 -1261 0
-1223 -1262 0
-1223 -1263 0
-1223 -1264 0
-1223 -1265 0
-1223 -1266 0
-1223 -1267 0
-1223 -1268 0
-1223 -1269 0
-1223 -1270 0
-1223 -1271 0
-1223 -1272 0
-1223 -1273 0
-1224 -1225 0
-1224 -1226 0
-1224 -1227 0
-1224 -1228 0
-1224 -1229 0
-1224 -1230 0
-1224 -1231 0
-1224 -1232 0
-1224 -1233 0
-1224 -1234 0
-1224 -1235 0
-1224 -1236 0
-1224 -1237 0
-1224 -1238 0
-1224 -1239 0
-1224 -1240 0
-1224 -1241 0
-1224 -1242 0
-1224 -1243 0
-1224 -1244 0
-1224 -1245 0
-1224 -1246 0
-1224 -1247 0
-1224 -1248 0
-1224 -1249 0
-1224 -1250 0
-1224 -1251 0
-1224 -1252 0
-1224 -1253 0
-1224 -1254 0
-1224 -1255 0
-1224 -1256 0
-1224 -1257 0
-1224 -1258 0
-1224 -1259 0
-1224 -1260 0
-1224 -1261 0
-1224 -1262 0
-1224 -1263 0
-1224 -1264 0
-1224 -1265 0
-1224 -1266 0
-1224 -1267 0
-1224 -1268 0
-1224 -1269 0
-1224 -1270 0
-1224 -1271 0
-1224 -1272 0
-1224 -1273 0
-1225 -1226 0
-1225 -1227 0
-1225 -1228 0
-1225 -1229 0
-1225 -1230 0
-1225 -1231 0
-1225 -1232 0
-1225 -1233 0
-1225 -1234 0
-1225 -1235 0
-1225 -1236 0
-1225 -1237 0
-1225 -1238 0
-1225 -1239 0
-1225 -1240 0
-1225 -1241 0
-1225 -1242 0
-1225 -1243 0
-1225 -1244 0
-1225 -1245 0
-1225 -1246 0
-1225 -1247 0
-1225 -1248 0
-1225 -1249 0
-1225 -1250 0
-1225 -1251 0
-1225 -1252 0
-1225 -1253 0
-1225 -1254 0
-1225 -1255 0
-1225 -1256 0
-1225 -1257 0
-1225 -1258 0
-1225 -1259 0
-1225 -1260 0
-1225 -1261 0
-1225 -1262 0
-1225 -1263 0
-1225 -1264 0
-1225 -1265 0
-1225 -1266 0
-1225 -1267 0
-1225 -1268 0
-1225 -1269 0
-1225 -1270 0
-1225 -1271 0
-1225 -1272 0
-1225 -1273 0
-1226 -1227 0
-1226 -1228 0
-1226 -1229 0
-1226 -1230 0
-1226 -1231 0
-1226 -1232 0
-1226 -1233 0
-1226 -1234 0
-1226 -1235 0
-1226 -1236 0
-1226 -1237 0
-1226 -1238 0
-1226 -1239 0
-1226 -1240 0
-1226 -1241 0
-1226 -1242 0
-1226 -1243 0
-1226 -1244 0
-1226 -1245 0
-1226 -1246 0
-1226 -1247 0
-1226 -1248 0
-1226 -1249 0
-1226 -1250 0
-1226 -1251 0
-1226 -1252 0
-1226 -1253 0
-1226 -1254 0
-1226 -1255 0
-1226 -1256 0
-1226 -1257 0
-1226 -1258 0
-1226 -1259 0
-1226 -1260 0
-1226 -1261 0
-1226 -1262 0
-1226 -1263 0
-1226 -1264 0
-1226 -1265 0
-1226 -1266 0
-1226 -1267 0
-1226 -1268 0
-1226 -1269 0
-1226 -1270 0
-1226 -1271 0
-1226 -1272 0
-1226 -1273 0
-1227 -1228 0
-1227 -1229 0
-1227 -1230 0
-1227 -1231 0
-1227 -1232 0
-1227 -1233 0
-1227 -1234 0
-1227 -1235 0
-1227 -1236 0
-1227 -1237 0
-1227 -1238 0
-1227 -1239 0
-1227 -1240 0
-1227 -1241 0
-1227 -1242 0
-1227 -1243 0
-1227 -1244 0
-1227 -1245 0
-1227 -1246 0
-1227 -1247 0
-1227 -1248 0
-1227 -1249 0
-1227 -1250 0
-1227 -1251 0
-1227 -1252 0
-1227 -1253 0
-1227 -1254 0
-1227 -1255 0
-1227 -1256 0
-1227 -1257 0
-1227 -1258 0
-1227 -1259 0
-1227 -1260 0
-1227 -1261 0
-1227 -1262 0
-1227 -1263 0
-1227 -1264 0
-1227 -1265 0
-1227 -1266 0
-1227 -1267 0
-1227 -1268 0
-1227 -1269 0
-1227 -1270 0
-1227 -1271 0
-1227 -1272 0
-1227 -1273 0
-1228 -1229 0
-1228 -1230 0
-1228 -1231 0
-1228 -1232 0
-1228 -1233 0
-1228 -1234 0
-1228 -1235 0
-1228 -1236 0
-1228 -1237 0
-1228 -1238 0
-1228 -1239 0
-1228 -1240 0
-1228 -1241 0
-1228 -1242 0
-1228 -1243 0
-1228 -1244 0
-1228 -1245 0
-1228 -1246 0
-1228 -1247 0
-1228 -1248 0
-1228 -1249 0
-1228 -1250 0
-1228 -1251 0
-1228 -1252 0
-1228 -1253 0
-1228 -1254 0
-1228 -1255 0
-1228 -1256 0
-1228 -1257 0
-1228 -1258 0
-1228 -1259 0
-1228 -1260 0
-1228 -1261 0
-1228 -1262 0
-1228 -1263 0
-1228 -1264 0
-1228 -1265 0
-1228 -1266 0
-1228 -1267 0
-1228 -1268 0
-1228 -1269 0
-1228 -1270 0
-1228 -1271 0
-1228 -1272 0
-1228 -1273 0
-1229 -1230 0
-1229 -1231 0
-1229 -1232 0
-1229 -1233 0
-1229 -1234 0
-1229 -1235 0
-1229 -1236 0
-1229 -1237 0
-1229 -1238 0
-1229 -1239 0
-1229 -1240 0
-1229 -1241 0
-1229 -1242 0
-1229 -1243 0
-1229 -1244 0
-1229 -1245 0
-1229 -1246 0
-1229 -1247 0
-1229 -1248 0
-1229 -1249 0
-1229 -1250 0
-1229 -1251 0
-1229 -1252 0
-1229 -1253 0
-1229 -1254 0
-1229 -1255 0
-1229 -1256 0
-1229 -1257 0
-1229 -1258 0
-1229 -1259 0
-1229 -1260 0
-1229 -1261 0
-1229 -1262 0
-1229 -1263 0
-1229 -1264 0
-1229 -1265 0
-1229 -1266 0
-1229 -1267 0
-1229 -1268 0
-1229 -1269 0
-1229 -1270 0
-1229 -1271 0
-1229 -1272 0
-1229 -1273 0
-1230 -1231 0
-1230 -1232 0
-1230 -1233 0
-1230 -1234 0
-1230 -1235 0
-1230 -1236 0
-1230 -1237 0
-1230 -1238 0
-1230 -1239 0
-1230 -1240 0
-1230 -1241 0
-1230 -1242 0
-1230 -1243 0
-1230 -1244 0
-1230 -1245 0
-1230 -1246 0
-1230 -1247 0
-1230 -1248 0
-1230 -1249 0
-1230 -1250 0
-1230 -1251 0
-1230 -1252 0
-1230 -1253 0
-1230 -1254 0
-1230 -1255 0
-1230 -1256 0
-1230 -1257 0
-1230 -1258 0
-1230 -1259 0
-1230 -1260 0
-1230 -1261 0
-1230 -1262 0
-1230 -1263 0
-1230 -1264 0
-1230 -1265 0
-1230 -1266 0
-1230 -1267 0
-1230 -1268 0
-1230 -1269 0
-1230 -1270 0
-1230 -1271 0
-1230 -1272 0
-1230 -1273 0
-1231 -1232 0
-1231 -1233 0
-1231 -1234 0
-1231 -1235 0
-1231 -1236 0
-1231 -1237 0
-1231 -1238 0
-1231 -1239 0
-1231 -1240 0
-1231 -1241 0
-1231 -1242 0
-1231 -1243 0
-1231 -1244 0
-1231 -1245 0
-1231 -1246 0
-1231 -1247 0
-1231 -1248 0
-1231 -1249 0
-1231 -1250 0
-1231 -1251 0
-1231 -1252 0
-1231 -1253 0
-1231 -1254 0
-1231 -1255 0
-1231 -1256 0
-1231 -1257 0
-1231 -1258 0
-1231 -1259 0
-1231 -1260 0
-1231 -1261 0
-1231 -1262 0
-1231 -1263 0
-1231 -1264 0
-1231 -1265 0
-1231 -1266 0
-1231 -1267 0
-1231 -1268 0
-1231 -1269 0
-1231 -1270 0
-1231 -1271 0
-1231 -1272 0
-1231 -1273 0
-1232 -1233 0
-1232 -1234 0
-1232 -1235 0
-1232 -1236 0
-1232 -1237 0
-1232 -1238 0
-1232 -1239 0
-1232 -1240 0
-1232 -1241 0
-1232 -1242 0
-1232 -1243 0
-1232 -1244 0
-1232 -1245 0
-1232 -1246 0
-1232 -1247 0
-1232 -1248 0
-1232 -1249 0
-1232 -1250 0
-1232 -1251 0
-1232 -1252 0
-1232 -1253 0
-1232 -1254 0
-1232 -1255 0
-1232 -1256 0
-1232 -1257 0
-1232 -1258 0
-1232 -1259 0
-1232 -1260 0
-1232 -1261 0
-1232 -1262 0
-1232 -1263 0
-1232 -1264 0
-1232 -1265 0
-1232 -1266 0
-1232 -1267 0
-1232 -1268 0
-1232 -1269 0
-1232 -1270 0
-1232 -1271 0
-1232 -1272 0
-1232 -1273 0
-1233 -1234 0
-1233 -1235 0
-1233 -1236 0
-1233 -1237 0
-1233 -1238 0
-1233 -1239 0
-1233 -1240 0
-1233 -1241 0
-1233 -1242 0
-1233 -1243 0
-1233 -1244 0
-1233 -1245 0
-1233 -1246 0
-1233 -1247 0
-1233 -1248 0
-1233 -1249 0
-1233 -1250 0
-1233 -1251 0
-1233 -1252 0
-1233 -1253 0
-1233 -1254 0
-1233 -1255 0
-1233 -1256 0
-1233 -1257 0
-1233 -1258 0
-1233 -1259 0
-1233 -1260 0
-1233 -1261 0
-1233 -1262 0
-1233 -1263 0
-1233 -1264 0
-1233 -1265 0
-1233 -1266 0
-1233 -1267 0
-1233 -1268 0
-1233 -1269 0
-1233 -1270 0
-1233 -1271 0
-1233 -1272 0
-1233 -1273 0
-1234 -1235 0
-1234 -1236 0
-1234 -1237 0
-1234 -1238 0
-1234 -1239 0
-1234 -1240 0
-1234 -1241 0
-1234 -1242 0
-1234 -1243 0
-1234 -1244 0
-1234 -1245 0
-1234 -1246 0
-1234 -1247 0
-1234 -1248 0
-1234 -1249 0
-1234 -1250 0
-1234 -1251 0
-1234 -1252 0
-1234 -1253 0
-1234 -1254 0
-1234 -1255 0
-1234 -1256 0
-1234 -1257 0
-1234 -1258 0
-1234 -1259 0
-1234 -1260 0
-1234 -1261 0
-1234 -1262 0
-1234 -1263 0
-1234 -1264 0
-1234 -1265 0
-1234 -1266 0
-1234 -1267 0
-1234 -1268 0
-1234 -1269 0
-1234 -1270 0
-1234 -1271 0
-1234 -1272 0
-1234 -1273 0
-1235 -1236 0
-1235 -1237 0
-1235 -1238 0
-1235 -1239 0
-1235 -1240 0
-1235 -1241 0
-1235 -1242 0
-1235 -1243 0
-1235 -1244 0
-1235 -1245 0
-1235 -1246 0
-1235 -1247 0
-1235 -1248 0
-1235 -1249 0
-1235 -1250 0
-1235 -1251 0
-1235 -1252 0
-1235 -1253 0
-1235 -1254 0
-1235 -1255 0
-1235 -1256 0
-1235 -1257 0
-1235 -1258 0
-1235 -1259 0
-1235 -1260 0
-1235 -1261 0
-1235 -1262 0
-1235 -1263 0
-1235 -1264 0
-1235 -1265 0
-1235 -1266 0
-1235 -1267 0
-1235 -1268 0
-1235 -1269 0
-1235 -1270 0
-1235 -1271 0
-1235 -1272 0
-1235 -1273 0
-1236 -1237 0
-1236 -1238 0
-1236 -1239 0
-1236 -1240 0
-1236 -1241 0
-1236 -1242 0
-1236 -1243 0
-1236 -1244 0
-1236 -1245 0
-1236 -1246 0
-1236 -1247 0
-1236 -1248 0
-1236 -1249 0
-1236 -1250 0
-1236 -1251 0
-1236 -1252 0
-1236 -1253 0
-1236 -1254 0
-1236 -1255 0
-1236 -1256 0
-1236 -1257 0
-1236 -1258 0
-1236 -1259 0
-1236 -1260 0
-1236 -1261 0
-1236 -1262 0
-1236 -1263 0
-1236 -1264 0
-1236 -1265 0
-1236 -1266 0
-1236 -1267 0
-1236 -1268 0
-1236 -1269 0
-1236 -1270 0
-1236 -1271 0
-1236 -1272 0
-1236 -1273 0
-1237 -1238 0
-1237 -1239 0
-1237 -1240 0
-1237 -1241 0
-1237 -1242 0
-1237 -1243 0
-1237 -1244 0
-1237 -1245 0
-1237 -1246 0
-1237 -1247 0
-1237 -1248 0
-1237 -1249 0
-1237 -1250 0
-1237 -1251 0
-1237 -1252 0
-1237 -1253 0
-1237 -1254 0
-1237 -1255 0
-1237 -1256 0
-1237 -1257 0
-1237 -1258 0
-1237 -1259 0
-1237 -1260 0
-1237 -1261 0
-1237 -1262 0
-1237 -1263 0
-1237 -1264 0
-1237 -1265 0
-1237 -1266 0
-1237 -1267 0
-1237 -1268 0
-1237 -1269 0
-1237 -1270 0
-1237 -1271 0
-1237 -1272 0
-1237 -1273 0
-1238 -1239 0
-1238 -1240 0
-1238 -1241 0
-1238 -1242 0
-1238 -1243 0
-1238 -1244 0
-1238 -1245 0
-1238 -1246 0
-1238 -1247 0
-1238 -1248 0
-1238 -1249 0
-1238 -1250 0
-1238 -1251 0
-1238 -1252 0
-1238 -1253 0
-1238 -1254 0
-1238 -1255 0
-1238 -1256 0
-1238 -1257 0
-1238 -1258 0
-1238 -1259 0
-1238 -1260 0
-1238 -1261 0
-1238 -1262 0
-1238 -1263 0
-1238 -1264 0
-1238 -1265 0
-1238 -1266 0
-1238 -1267 0
-1238 -1268 0
-1238 -1269 0
-1238 -1270 0
-1238 -1271 0
-1238 -1272 0
-1238 -1273 0
-1239 -1240 0
-1239 -1241 0
-1239 -1242 0
-1239 -1243 0
-1239 -1244 0
-1239 -1245 0
-1239 -1246 0
-1239 -1247 0
-1239 -1248 0
-1239 -1249 0
-1239 -1250 0
-1239 -1251 0
-1239 -1252 0
-1239 -1253 0
-1239 -1254 0
-1239 -1255 0
-1239 -1256 0
-1239 -1257 0
-1239 -1258 0
-1239 -1259 0
-1239 -1260 0
-1239 -1261 0
-1239 -1262 0
-1239 -1263 0
-1239 -1264 0
-1239 -1265 0
-1239 -1266 0
-1239 -1267 0
-1239 -1268 0
-1239 -1269 0
-1239 -1270 0
-1239 -1271 0
-1239 -1272 0
-1239 -1273 0
-1240 -1241 0
-1240 -1242 0
-1240 -1243 0
-1240 -1244 0
-1240 -1245 0
-1240 -1246 0
-1240 -1247 0
-1240 -1248 0
-1240 -1249 0
-1240 -1250 0
-1240 -1251 0
-1240 -1252 0
-1240 -1253 0
-1240 -1254 0
-1240 -1255 0
-1240 -1256 0
-1240 -1257 0
-1240 -1258 0
-1240 -1259 0
-1240 -1260 0
-1240 -1261 0
-1240 -1262 0
-1240 -1263 0
-1240 -1264 0
-1240 -1265 0
-1240 -1266 0
-1240 -1267 0
-1240 -1268 0
-1240 -1269 0
-1240 -1270 0
-1240 -1271 0
-1240 -1272 0
-1240 -1273 0
-1241 -1242 0
-1241 -1243 0
-1241 -1244 0
-1241 -1245 0
-1241 -1246 0
-1241 -1247 0
-1241 -1248 0
-1241 -1249 0
-1241 -1250 0
-1241 -1251 0
-1241 -1252 0
-1241 -1253 0
-1241 -1254 0
-1241 -1255 0
-1241 -1256 0
-1241 -1257 0
-1241 -1258 0
-1241 -1259 0
-1241 -1260 0
-1241 -1261 0
-1241 -1262 0
-1241 -1263 0
-1241 -1264 0
-1241 -1265 0
-1241 -1266 0
-1241 -1267 0
-1241 -1268 0
-1241 -1269 0
-1241 -1270 0
-1241 -1271 0
-1241 -1272 0
-1241 -1273 0
-1242 -1243 0
-1242 -1244 0
-1242 -1245 0
-1242 -1246 0
-1242 -1247 0
-1242 -1248 0
-1242 -1249 0
-1242 -1250 0
-1242 -1251 0
-1242 -1252 0
-1242 -1253 0
-1242 -1254 0
-1242 -1255 0
-1242 -1256 0
-1242 -1257 0
-1242 -1258 0
-1242 -1259 0
-1242 -1260 0
-1242 -1261 0
-1242 -1262 0
-1242 -1263 0
-1242 -1264 0
-1242 -1265 0
-1242 -1266 0
-1242 -1267 0
-1242 -1268 0
-1242 -1269 0
-1242 -1270 0
-1242 -1271 0
-1242 -1272 0
-1242 -1273 0
-1243 -1244 0
-1243 -1245 0
-1243 -1246 0
-1243 -1247 0
-1243 -1248 0
-1243 -1249 0
-1243 -1250 0
-1243 -1251 0
-1243 -1252 0
-1243 -1253 0
-1243 -1254 0
-1243 -1255 0
-1243 -1256 0
-1243 -1257 0
-1243 -1258 0
-1243 -1259 0
-1243 -1260 0
-1243 -1261 0
-1243 -1262 0
-1243 -1263 0
-1243 -1264 0
-1243 -1265 0
-1243 -1266 0
-1243 -1267 0
-1243 -1268 0
-1243 -1269 0
-1243 -1270 0
-1243 -1271 0
-1243 -1272 0
-1243 -1273 0
-1244 -1245 0
-1244 -1246 0
-1244 -1247 0
-1244 -1248 0
-1244 -1249 0
-1244 -1250 0
-1244 -1251 0
-1244 -1252 0
-1244 -1253 0
-1244 -1254 0
-1244 -1255 0
-1244 -1256 0
-1244 -1257 0
-1244 -1258 0
-1244 -1259 0
-1244 -1260 0
-1244 -1261 0
-1244 -1262 0
-1244 -1263 0
-1244 -1264 0
-1244 -1265 0
-1244 -1266 0
-1244 -1267 0
-1244 -1268 0
-1244 -1269 0
-1244 -1270 0
-1244 -1271 0
-1244 -1272 0
-1244 -1273 0
-1245 -1246 0
-1245 -1247 0
-1245 -1248 0
-1245 -1249 0
-1245 -1250 0
-1245 -1251 0
-1245 -1252 0
-1245 -1253 0
-1245 -1254 0
-1245 -1255 0
-1245 -1256 0
-1245 -1257 0
-1245 -1258 0
-1245 -1259 0
-1245 -1260 0
-1245 -1261 0
-1245 -1262 0
-1245 -1263 0
-1245 -1264 0
-1245 -1265 0
-1245 -1266 0
-1245 -1267 0
-1245 -1268 0
-1245 -1269 0
-1245 -1270 0
-1245 -1271 0
-1245 -1272 0
-1245 -1273 0
-1246 -1247 0
-1246 -1248 0
-1246 -1249 0
-1246 -1250 0
-1246 -1251 0
-1246 -1252 0
-1246 -1253 0
-1246 -1254 0
-1246 -1255 0
-1246 -1256 0
-1246 -1257 0
-1246 -1258 0
-1246 -1259 0
-1246 -1260 0
-1246 -1261 0
-1246 -1262 0
-1246 -1263 0
-1246 -1264 0
-1246 -1265 0
-1246 -1266 0
-1246 -1267 0
-1246 -1268 0
-1246 -1269 0
-1246 -1270 0
-1246 -1271 0
-1246 -1272 0
-1246 -1273 0
-1247 -1248 0
-1247 -1249 0
-1247 -1250 0
-1247 -1251 0
-1247 -1252 0
-1247 -1253 0
-1247 -1254 0
-1247 -1255 0
-1247 -1256 0
-1247 -1257 0
-1247 -1258 0
-1247 -1259 0
-1247 -1260 0
-1247 -1261 0
-1247 -1262 0
-1247 -1263 0
-1247 -1264 0
-1247 -1265 0
-1247 -1266 0
-1247 -1267 0
-1247 -1268 0
-1247 -1269 0
-1247 -1270 0
-1247 -1271 0
-1247 -1272 0
-1247 -1273 0
-1248 -1249 0
-1248 -1250 0
-1248 -1251 0
-1248 -1252 0
-1248 -1253 0
-1248 -1254 0
-1248 -1255 0
-1248 -1256 0
-1248 -1257 0
-1248 -1258 0
-1248 -1259 0
-1248 -1260 0
-1248 -1261 0
-1248 -1262 0
-1248 -1263 0
-1248 -1264 0
-1248 -1265 0
-1248 -1266 0
-1248 -1267 0
-1248 -1268 0
-1248 -1269 0
-1248 -1270 0
-1248 -1271 0
-1248 -1272 0
-1248 -1273 0
-1249 -1250 0
-1249 -1251 0
-1249 -1252 0
-1249 -1253 0
-1249 -1254 0
-1249 -1255 0
-1249 -1256 0
-1249 -1257 0
-1249 -1258 0
-1249 -1259 0
-1249 -1260 0
-1249 -1261 0
-1249 -1262 0
-1249 -1263 0
-1249 -1264 0
-1249 -1265 0
-1249 -1266 0
-1249 -1267 0
-1249 -1268 0
-1249 -1269 0
-1249 -1270 0
-1249 -1271 0
-1249 -1272 0
-1249 -1273 0
-1250 -1251 0
-1250 -1252 0
-1250 -1253 0
-1250 -1254 0
-1250 -1255 0
-1250 -1256 0
-1250 -1257 0
-1250 -1258 0
-1250 -1259 0
-1250 -1260 0
-1250 -1261 0
-1250 -1262 0
-1250 -1263 0
-1250 -1264 0
-1250 -1265 0
-1250 -1266 0
-1250 -1267 0
-1250 -1268 0
-1250 -1269 0
-1250 -1270 0
-1250 -1271 0
-1250 -1272 0
-1250 -1273 0
-1251 -1252 0
-1251 -1253 0
-1251 -1254 0
-1251 -1255 0
-1251 -1256 0
-1251 -1257 0
-1251 -1258 0
-1251 -1259 0
-1251 -1260 0
-1251 -1261 0
-1251 -1262 0
-1251 -1263 0
-1251 -1264 0
-1251 -1265 0
-1251 -1266 0
-1251 -1267 0
-1251 -1268 0
-1251 -1269 0
-1251 -1270 0
-1251 -1271 0
-1251 -1272 0
-1251 -1273 0
-1252 -1253 0
-1252 -1254 0
-1252 -1255 0
-1252 -1256 0
-1252 -1257 0
-1252 -1258 0
-1252 -1259 0
-1252 -1260 0
-1252 -1261 0
-1252 -1262 0
-1252 -1263 0
-1252 -1264 0
-1252 -1265 0
-1252 -1266 0
-1252 -1267 0
-1252 -1268 0
-1252 -1269 0
-1252 -1270 0
-1252 -1271 0
-1252 -1272 0
-1252 -1273 0
-1253 -1254 0
-1253 -1255 0
-1253 -1256 0
-1253 -1257 0
-1253 -1258 0
-1253 -1259 0
-1253 -1260 0
-1253 -1261 0
-1253 -1262 0
-1253 -1263 0
-1253 -1264 0
-1253 -1265 0
-1253 -1266 0
-1253 -1267 0
-1253 -1268 0
-1253 -1269 0
-1253 -1270 0
-1253 -1271 0
-1253 -1272 0
-1253 -1273 0
-1254 -1255 0
-1254 -1256 0
-1254 -1257 0
-1254 -1258 0
-1254 -1259 0
-1254 -1260 0
-1254 -1261 0
-1254 -1262 0
-1254 -1263 0
-1254 -1264 0
-1254 -1265 0
-1254 -1266 0
-1254 -1267 0
-1254 -1268 0
-1254 -1269 0
-1254 -1270 0
-1254 -1271 0
-1254 -1272 0
-1254 -1273 0
-1255 -1256 0
-1255 -1257 0
-1255 -1258 0
-1255 -1259 0
-1255 -1260 0
-1255 -1261 0
-1255 -1262 0
-1255 -1263 0
-1255 -1264 0
-1255 -1265 0
-1255 -1266 0
-1255 -1267 0
-1255 -1268 0
-1255 -1269 0
-1255 -1270 0
-1255 -1271 0
-1255 -1272 0
-1255 -1273 0
-1256 -1257 0
-1256 -1258 0
-1256 -1259 0
-1256 -1260 0
-1256 -1261 0
-1256 -1262 0
-1256 -1263 0
-1256 -1264 0
-1256 -1265 0
-1256 -1266 0
-1256 -1267 0
-1256 -1268 0
-1256 -1269 0
-1256 -1270 0
-1256 -1271 0
-1256 -1272 0
-1256 -1273 0
-1257 -1258 0
-1257 -1259 0
-1257 -1260 0
-1257 -1261 0
-1257 -1262 0
-1257 -1263 0
-1257 -1264 0
-1257 -1265 0
-1257 -1266 0
-1257 -1267 0
-1257 -1268 0
-1257 -1269 0
-1257 -1270 0
-1257 -1271 0
-1257 -1272 0
-1257 -1273 0
-1258 -1259 0
-1258 -1260 0
-1258 -1261 0
-1258 -1262 0
-1258 -1263 0
-1258 -1264 0
-1258 -1265 0
-1258 -1266 0
-1258 -1267 0
-1258 -1268 0
-1258 -1269 0
-1258 -1270 0
-1258 -1271 0
-1258 -1272 0
-1258 -1273 0
-1259 -1260 0
-1259 -1261 0
-1259 -1262 0
-1259 -1263 0
-1259 -1264 0
-1259 -1265 0
-1259 -1266 0
-1259 -1267 0
-1259 -1268 0
-1259 -1269 0
-1259 -1270 0
-1259 -1271 0
-1259 -1272 0
-1259 -1273 0
-1260 -1261 0
-1260 -1262 0
-1260 -1263 0
-1260 -1264 0
-1260 -1265 0
-1260 -1266 0
-1260 -1267 0
-1260 -1268 0
-1260 -1269 0
-1260 -1270 0
-1260 -1271 0
-1260 -1272 0
-1260 -1273 0
-1261 -1262 0
-1261 -1263 0
-1261 -1264 0
-1261 -1265 0
-1261 -1266 0
-1261 -1267 0
-1261 -1268 0
-1261 -1269 0
-1261 -1270 0
-1261 -1271 0
-1261 -1272 0
-1261 -1273 0
-1262 -1263 0
-1262 -1264 0
-1262 -1265 0
-1262 -1266 0
-1262 -1267 0
-1262 -1268 0
-1262 -1269 0
-1262 -1270 0
-1262 -1271 0
-1262 -1272 0
-1262 -1273 0
-1263 -1264 0
-1263 -1265 0
-1263 -1266 0
-1263 -1267 0
-1263 -1268 0
-1263 -1269 0
-1263 -1270 0
-1263 -1271 0
-1263 -1272 0
-1263 -1273 0
-1264 -1265 0
-1264 -1266 0
-1264 -1267 0
-1264 -1268 0
-1264 -1269 0
-1264 -1270 0
-1264 -1271 0
-1264 -1272 0
-1264 -1273 0
-1265 -1266 0
-1265 -1267 0
-1265 -1268 0
-1265 -1269 0
-1265 -1270 0
-1265 -1271 0
-1265 -1272 0
-1265 -1273 0
-1266 -1267 0
-1266 -1268 0
-1266 -1269 0
-1266 -1270 0
-1266 -1271 0
-1266 -1272 0
-1266 -1273 0
-1267 -1268 0
-1267 -1269 0
-1267 -1270 0
-1267 -1271 0
-1267 -1272 0
-1267 -1273 0
-1268 -1269 0
-1268 -1270 0
-1268 -1271 0
-1268 -1272 0
-1268 -1273 0
-1269 -1270 0
-1269 -1271 0
-1269 -1272 0
-1269 -1273 0
-1270 -1271 0
-1270 -1272 0
-1270 -1273 0
-1271 -1272 0
-1271 -1273 0
-1272 -1273 0
1274 1275 1276 1277 1278 1279 1280 1281 1282 1283 1284 1285 1286 1287 1288 1289 1290 1291 1292 1293 1294 1295 1296 1297 1298 1299 1300 1301 1302 1303 1304 1305 1306 1307 1308 1309 1310 1311 1312 1313 1314 1315 1316 1317 1318 1319 1320 1321 1322 1323 1324 1325 1326 1327 1328 1329 1330 1331 1332 1333 1334 1335 1336 1337 1338 1339 1340 1341 1342 1343 1344 1345 1346 1347 1348 1349 1350 1351 1352 1353 1354 1355 1356 1357 0
-1274 -1275 0
-1274 -1276 0
-1274 -1277 0
-1274 -1278 0
-1274 -1279 0
-1274 -1280 0
-1274 -1281 0
-1274 -1282 0
-1274 -1283 0
-1274 -1284 0
-1274 -1285 0
-1274 -1286 0
-1274 -1287 0
-1274 -1288 0
-1274 -1289 0
-1274 -1290 0
-1274 -1291 0
-1274 -1292 0
-1274 -1293 0
-1274 -1294 0
-1274 -1295 0
-1274 -1296 0
-1274 -1297 0
-1274 -1298 0
-1274 -1299 0
-1274 -1300 0
-1274 -1301 0
-1274 -1302 0
-1274 -1303 0
-1274 -1304 0
-1274 -1305 0
-1274 -1306 0
-1274 -1307 0
-1274 -1308 0
-1274 -1309 0
-1274 -1310 0
-1274 -1311 0
-1274 -1312 0
-1274 -1313 0
-1274 -1314 0
-1274 -1315 0
-1274 -1316 0
-1274 -1317 0
-1274 -1318 0
-1274 -1319 0
-1274 -1320 0
-1274 -1321 0
-1274 -1322 0
-1274 -1323 0
-1274 -1324 0
-1274 -1325 0
-1274 -1326 0
-1274 -1327 0
-1274 -1328 0
-1274 -1329 0
-1274 -1330 0
-1274 -1331 0
-1274 -1332 0
-1274 -1333 0
-1274 -1334 0
-1274 -1335 0
-1274 -1336 0
-1274 -1337 0
-1274 -1338 0
-1274 -1339 0
-1274 -1340 0
-1274 -1341 0
-1274 -1342 0
-1274 -1343 0
-1274 -1344 0
-1274 -1345 0
-1274 -1346 0
-1274 -1347 0
-1274 -1348 0
-1274 -1349 0
-1274 -1350 0
-1274 -1351 0
-1274 -1352 0
-1274 -1353 0
-1274 -1354 0
-1274 -1355 0
-1274 -1356 0
-1274 -1357 0
-1275 -1276 0
-1275 -1277 0
-1275 -1278 0
-1275 -1279 0
-1275 -1280 0
-1275 -1281 0
-1275 -1282 0
-1275 -1283 0
-1275 -1284 0
-1275 -1285 0
-1275 -1286 0
-1275 -1287 0
-1275 -1288 0
-1275 -1289 0
-1275 -1290 0
-1275 -1291 0
-1275 -1292 0
-1275 -1293 0
-1275 -1294 0
-1275 -1295 0
-1275 -1296 0
-1275 -1297 0
-1275 -1298 0
-1275 -1299 0
-1275 -1300 0
-1275 -1301 0
-1275 -1302 0
-1275 -1303 0
-1275 -1304 0
-1275 -1305 0
-1275 -1306 0
-1275 -1307 0
-1275 -1308 0
-1275 -1309 0
-1275 -1310 0
-1275 -1311 0
-1275 -1312 0
-1275 -1313 0
-1275 -1314 0
-1275 -1315 0
-1275 -1316 0
-1275 -1317 0
-1275 -1318 0
-1275 -1319 0
-1275 -1320 0
-1275 -1321 0
-1275 -1322 0
-1275 -1323 0
-1275 -1324 0
-1275 -1325 0
-1275 -1326 0
-1275 -1327 0
-1275 -1328 0
-1275 -1329 0
-1275 -1330 0
-1275 -1331 0
-1275 -1332 0
-1275 -1333 0
-1275 -1334 0
-1275 -1335 0
-1275 -1336 0
-1275 -1337 0
-1275 -1338 0
-1275 -1339 0
-1275 -1340 0
-1275 -1341 0
-1275 -1342 0
-1275 -1343 0
-1275 -1344 0
-1275 -1345 0
-1275 -1346 0
-1275 -1347 0
-1275 -1348 0
-1275 -1349 0
-1275 -1350 0
-1275 -1351 0
-1275 -1352 0
-1275 -1353 0
-1275 -1354 0
-1275 -1355 0
-1275 -1356 0
-1275 -1357 0
-1276 -1277 0
-1276 -1278 0
-1276 -1279 0
-1276 -1280 0
-1276 -1281 0
-1276 -1282 0
-1276 -1283 0
-1276 -1284 0
-1276 -1285 0
-1276 -1286 0
-1276 -1287 0
-1276 -1288 0
-1276 -1289 0
-1276 -1290 0
-1276 -1291 0
-1276 -1292 0
-1276 -1293 0
-1276 -1294 0
-1276 -1295 0
-1276 -1296 0
-1276 -1297 0
-1276 -1298 0
-1276 -1299 0
-1276 -1300 0
-1276 -1301 0
-1276 -1302 0
-1276 -1303 0
-1276 -1304 0
-1276 -1305 0
-1276 -1306 0
-1276 -1307 0
-1276 -1308 0
-1276 -1309 0
-1276 -1310 0
-1276 -1311 0
-1276 -1312 0
-1276 -1313 0
-1276 -1314 0
-1276 -1315 0
-1276 -1316 0
-1276 -1317 0
-1276 -1318 0
-1276 -1319 0
-1276 -1320 0
-1276 -1321 0
-1276 -1322 0
-1276 -1323 0
-1276 -1324 0
-1276 -1325 0
-1276 -1326 0
-1276 -1327 0
-1276 -1328 0
-1276 -1329 0
-1276 -1330 0
-1276 -1331 0
-1276 -1332 0
-1276 -1333 0
-1276 -1334 0
-1276 -1335 0
-1276 -1336 0
-1276 -1337 0
-1276 -1338 0
-1276 -1339 0
-1276 -1340 0
-1276 -1341 0
-1276 -1342 0
-1276 -1343 0
-1276 -1344 0
-1276 -1345 0
-1276 -1346 0
-1276 -1347 0
-1276 -1348 0
-1276 -1349 0
-1276 -1350 0
-1276 -1351 0
-1276 -1352 0
-1276 -1353 0
-1276 -1354 0
-1276 -1355 0
-1276 -1356 0
-1276 -1357 0
-1277 -1278 0
-1277 -1279 0
-1277 -1280 0
-1277 -1281 0
-1277 -1282 0
-1277 -1283 0
-1277 -1284 0
-1277 -1285 0
-1277 -1286 0
-1277 -1287 0
-1277 -1288 0
-1277 -1289 0
-1277 -1290 0
-1277 -1291 0
-1277 -1292 0
-1277 -1293 0
-1277 -1294 0
-1277 -1295 0
-1277 -1296 0
-1277 -1297 0
-1277 -1298 0
-1277 -1299 0
-1277 -1300 0
-1277 -1301 0
-1277 -1302 0
-1277 -1303 0
-1277 -1304 0
-1277 -1305 0
-1277 -1306 0
-1277 -1307 0
-1277 -1308 0
-1277 -1309 0
-1277 -1310 0
-1277 -1311 0
-1277 -1312 0
-1277 -1313 0
-1277 -1314 0
-1277 -1315 0
-1277 -1316 0
-1277 -1317 0
-1277 -1318 0
-1277 -1319 0
-1277 -1320 0
-1277 -1321 0
-1277 -1322 0
-1277 -1323 0
-1277 -1324 0
-1277 -1325 0
-1277 -1326 0
-1277 -1327 0
-1277 -1328 0
-1277 -1329 0
-1277 -1330 0
-1277 -1331 0
-1277 -1332 0
-1277 -1333 0
-1277 -1334 0
-1277 -1335 0
-1277 -1336 0
-1277 -1337 0
-1277 -1338 0
-1277 -1339 0
-1277 -1340 0
-1277 -1341 0
-1277 -1342 0
-1277 -1343 0
-1277 -1344 0
-1277 -1345 0
-1277 -1346 0
-1277 -1347 0
-1277 -1348 0
-1277 -1349 0
-1277 -1350 0
-1277 -1351 0
-1277 -1352 0
-1277 -1353 0
-1277 -1354 0
-1277 -1355 0
-1277 -1356 0
-1277 -1357 0
-1278 -1279 0
-1278 -1280 0
-1278 -1281 0
-1278 -1282 0
-1278 -1283 0
-1278 -1284 0
-1278 -1285 0
-1278 -1286 0
-1278 -1287 0
-1278 -1288 0
-1278 -1289 0
-1278 -1290 0
-1278 -1291 0
-1278 -1292 0
-1278 -1293 0
-1278 -1294 0
-1278 -1295 0
-1278 -1296 0
-1278 -1297 0
-1278 -1298 0
-1278 -1299 0
-1278 -1300 0
-1278 -1301 0
-1278 -1302 0
-1278 -1303 0
-1278 -1304 0
-1278 -1305 0
-1278 -1306 0
-1278 -1307 0
-1278 -1308 0
-1278 -1309 0
-1278 -1310 0
-1278 -1311 0
-1278 -1312 0
-1278 -1313 0
-1278 -1314 0
-1278 -1315 0
-1278 -1316 0
-1278 -1317 0
-1278 -1318 0
-1278 -1319 0
-1278 -1320 0
-1278 -1321 0
-1278 -1322 0
-1278 -1323 0
-1278 -1324 0
-1278 -1325 0
-1278 -1326 0
-1278 -1327 0
-1278 -1328 0
-1278 -1329 0
-1278 -1330 0
-1278 -1331 0
-1278 -1332 0
-1278 -1333 0
-1278 -1334 0
-1278 -1335 0
-1278 -1336 0
-1278 -1337 0
-1278 -1338 0
-1278 -1339 0
-1278 -1340 0
-1278 -1341 0
-1278 -1342 0
-1278 -1343 0
-1278 -1344 0
-1278 -1345 0
-1278 -1346 0
-1278 -1347 0
-1278 -1348 0
-1278 -1349 0
-1278 -1350 0
-1278 -1351 0
-1278 -1352 0
-1278 -1353 0
-1278 -1354 0
-1278 -1355 0
-1278 -1356 0
-1278 -1357 0
-1279 -1280 0
-1279 -1281 0
-1279 -1282 0
-1279 -1283 0
-1279 -1284 0
-1279 -1285 0
-1279 -1286 0
-1279 -1287 0
-1279 -1288 0
-1279 -1289 0
-1279 -1290 0
-1279 -1291 0
-1279 -1292 0
-1279 -1293 0
-1279 -1294 0
-1279 -1295 0
-1279 -1296 0
-1279 -1297 0
-1279 -1298 0
-1279 -1299 0
-1279 -1300 0
-1279 -1301 0
-1279 -1302 0
-1279 -1303 0
-1279 -1304 0
-1279 -1305 0
-1279 -1306 0
-1279 -1307 0
-1279 -1308 0
-1279 -1309 0
-1279 -1310 0
-1279 -1311 0
-1279 -1312 0
-1279 -1313 0
-1279 -1314 0
-1279 -1315 0
-1279 -1316 0
-1279 -1317 0
-1279 -1318 0
-1279 -1319 0
-1279 -1320 0
-1279 -1321 0
-1279 -1322 0
-1279 -1323 0
-1279 -1324 0
-1279 -1325 0
-1279 -1326 0
-1279 -1327 0
-1279 -1328 0
-1279 -1329 0
-1279 -1330 0
-1279 -1331 0
-1279 -1332 0
-1279 -1333 0
-1279 -1334 0
-1279 -1335 0
-1279 -1336 0
-1279 -1337 0
-1279 -1338 0
-1279 -1339 0
-1279 -1340 0
-1279 -1341 0
-1279 -1342 0
-1279 -1343 0
-1279 -1344 0
-1279 -1345 0
-1279 -1346 0
-1279 -1347 0
-1279 -1348 0
-1279 -1349 0
-1279 -1350 0
-1279 -1351 0
-1279 -1352 0
-1279 -1353 0
-1279 -1354 0
-1279 -1355 0
-1279 -1356 0
-1279 -1357 0
-1280 -1281 0
-1280 -1282 0
-1280 -1283 0
-1280 -1284 0
-1280 -1285 0
-1280 -1286 0
-1280 -1287 0
-1280 -1288 0
-1280 -1289 0
-1280 -1290 0
-1280 -1291 0
-1280 -1292 0
-1280 -1293 0
-1280 -1294 0
-1280 -1295 0
-1280 -1296 0
-1280 -1297 0
-1280 -1298 0
-1280 -1299 0
-1280 -1300 0
-1280 -1301 0
-1280 -1302 0
-1280 -1303 0
-1280 -1304 0
-1280 -1305 0
-1280 -1306 0
-1280 -1307 0
-1280 -1308 0
-1280 -1309 0
-1280 -1310 0
-1280 -1311 0
-1280 -1312 0
-1280 -1313 0
-1280 -1314 0
-1280 -1315 0
-1280 -1316 0
-1280 -1317 0
-1280 -1318 0
-1280 -1319 0
-1280 -1320 0
-1280 -1321 0
-1280 -1322 0
-1280 -1323 0
-1280 -1324 0
-1280 -1325 0
-1280 -1326 0
-1280 -1327 0
-1280 -1328 0
-1280 -1329 0
-1280 -1330 0
-1280 -1331 0
-1280 -1332 0
-1280 -1333 0
-1280 -1334 0
-1280 -1335 0
-1280 -1336 0
-1280 -1337 0
-1280 -1338 0
-1280 -1339 0
-1280 -1340 0
-1280 -1341 0
-1280 -1342 0
-1280 -1343 0
-1280 -1344 0
-1280 -1345 0
-1280 -1346 0
-1280 -1347 0
-1280 -1348 0
-1280 -1349 0
-1280 -1350 0
-1280 -1351 0
-1280 -1352 0
-1280 -1353 0
-1280 -1354 0
-1280 -1355 0
-1280 -1356 0
-1280 -1357 0
-1281 -1282 0
-1281 -1283 0
-1281 -1284 0
-1281 -1285 0
-1281 -1286 0
-1281 -1287 0
-1281 -1288 0
-1281 -1289 0
-1281 -1290 0
-1281 -1291 0
-1281 -1292 0
-1281 -1293 0
-1281 -1294 0
-1281 -1295 0
-1281 -1296 0
-1281 -1297 0
-1281 -1298 0
-1281 -1299 0
-1281 -1300 0
-1281 -1301 0
-1281 -1302 0
-1281 -1303 0
-1281 -1304 0
-1281 -1305 0
-1281 -1306 0
-1281 -1307 0
-1281 -1308 0
-1281 -1309 0
-1281 -1310 0
-1281 -1311 0
-1281 -1312 0
-1281 -1313 0
-1281 -1314 0
-1281 -1315 0
-1281 -1316 0
-1281 -1317 0
-1281 -1318 0
-1281 -1319 0
-1281 -1320 0
-1281 -1321 0
-1281 -1322 0
-1281 -1323 0
-1281 -1324 0
-1281 -1325 0
-1281 -1326 0
-1281 -1327 0
-1281 -1328 0
-1281 -1329 0
-1281 -1330 0
-1281 -1331 0
-1281 -1332 0
-1281 -1333 0
-1281 -1334 0
-1281 -1335 0
-1281 -1336 0
-1281 -1337 0
-1281 -1338 0
-1281 -1339 0
-1281 -1340 0
-1281 -1341 0
-1281 -1342 0
-1281 -1343 0
-1281 -1344 0
-1281 -1345 0
-1281 -1346 0
-1281 -1347 0
-1281 -1348 0
-1281 -1349 0
-1281 -1350 0
-1281 -1351 0
-1281 -1352 0
-1281 -1353 0
-1281 -1354 0
-1281 -1355 0
-1281 -1356 0
-1281 -1357 0
-1282 -1283 0
-1282 -1284 0
-1282 -1285 0
-1282 -1286 0
-1282 -1287 0
-1282 -1288 0
-1282 -1289 0
-1282 -1290 0
-1282 -1291 0
-1282 -1292 0
-1282 -1293 0
-1282 -1294 0
-1282 -1295 0
-1282 -1296 0
-1282 -1297 0
-1282 -1298 0
-1282 -1299 0
-1282 -1300 0
-1282 -1301 0
-1282 -1302 0
-1282 -1303 0
-1282 -1304 0
-1282 -1305 0
-1282 -1306 0
-1282 -1307 0
-1282 -1308 0
-1282 -1309 0
-1282 -1310 0
-1282 -1311 0
-1282 -1312 0
-1282 -1313 0
-1282 -1314 0
-1282 -1315 0
-1282 -1316 0
-1282 -1317 0
-1282 -1318 0
-1282 -1319 0
-1282 -1320 0
-1282 -1321 0
-1282 -1322 0
-1282 -1323 0
-1282 -1324 0
-1282 -1325 0
-1282 -1326 0
-1282 -1327 0
-1282 -1328 0
-1282 -1329 0
-1282 -1330 0
-1282 -1331 0
-1282 -1332 0
-1282 -1333 0
-1282 -1334 0
-1282 -1335 0
-1282 -1336 0
-1282 -1337 0
-1282 -1338 0
-1282 -1339 0
-1282 -1340 0
-1282 -1341 0
-1282 -1342 0
-1282 -1343 0
-1282 -1344 0
-1282 -1345 0
-1282 -1346 0
-1282 -1347 0
-1282 -1348 0
-1282 -1349 0
-1282 -1350 0
-1282 -1351 0
-1282 -1352 0
-1282 -1353 0
-1282 -1354 0
-1282 -1355 0
-1282 -1356 0
-1282 -1357 0
-1283 -1284 0
-1283 -1285 0
-1283 -1286 0
-1283 -1287 0
-1283 -1288 0
-1283 -1289 0
-1283 -1290 0
-1283 -1291 0
-1283 -1292 0
-1283 -1293 0
-1283 -1294 0
-1283 -1295 0
-1283 -1296 0
-1283 -1297 0
-1283 -1298 0
-1283 -1299 0
-1283 -1300 0
-1283 -1301 0
-1283 -1302 0
-1283 -1303 0
-1283 -1304 0
-1283 -1305 0
-1283 -1306 0
-1283 -1307 0
-1283 -1308 0
-1283 -1309 0
-1283 -1310 0
-1283 -1311 0
-1283 -1312 0
-1283 -1313 0
-1283 -1314 0
-1283 -1315 0
-1283 -1316 0
-1283 -1317 0
-1283 -1318 0
-1283 -1319 0
-1283 -1320 0
-1283 -1321 0
-1283 -1322 0
-1283 -1323 0
-1283 -1324 0
-1283 -1325 0
-1283 -1326 0
-1283 -1327 0
-1283 -1328 0
-1283 -1329 0
-1283 -1330 0
-1283 -1331 0
-1283 -1332 0
-1283 -1333 0
-1283 -1334 0
-1283 -1335 0
-1283 -1336 0
-1283 -1337 0
-1283 -1338 0
-1283 -1339 0
-1283 -1340 0
-1283 -1341 0
-1283 -1342 0
-1283 -1343 0
-1283 -1344 0
-1283 -1345 0
-1283 -1346 0
-1283 -1347 0
-1283 -1348 0
-1283 -1349 0
-1283 -1350 0
-1283 -1351 0
-1283 -1352 0
-1283 -1353 0
-1283 -1354 0
-1283 -1355 0
-1283 -1356 0
-1283 -1357 0
-1284 -1285 0
-1284 -1286 0
-1284 -1287 0
-1284 -1288 0
-1284 -1289 0
-1284 -1290 0
-1284 -1291 0
-1284 -1292 0
-1284 -1293 0
-1284 -1294 0
-1284 -1295 0
-1284 -1296 0
-1284 -1297 0
-1284 -1298 0
-1284 -1299 0
-1284 -1300 0
-1284 -1301 0
-1284 -1302 0
-1284 -1303 0
-1284 -1304 0
-1284 -1305 0
-1284 -1306 0
-1284 -1307 0
-1284 -1308 0
-1284 -1309 0
-1284 -1310 0
-1284 -1311 0
-1284 -1312 0
-1284 -1313 0
-1284 -1314 0
-1284 -1315 0
-1284 -1316 0
-1284 -1317 0
-1284 -1318 0
-1284 -1319 0
-1284 -1320 0
-1284 -1321 0
-1284 -1322 0
-1284 -1323 0
-1284 -1324 0
-1284 -1325 0
-1284 -1326 0
-1284 -1327 0
-1284 -1328 0
-1284 -1329 0
-1284 -1330 0
-1284 -1331 0
-1284 -1332 0
-1284 -1333 0
-1284 -1334 0
-1284 -1335 0
-1284 -1336 0
-1284 -1337 0
-1284 -1338 0
-1284 -1339 0
-1284 -1340 0
-1284 -1341 0
-1284 -1342 0
-1284 -1343 0
-1284 -1344 0
-1284 -1345 0
-1284 -1346 0
-1284 -1347 0
-1284 -1348 0
-1284 -1349 0
-1284 -1350 0
-1284 -1351 0
-1284 -1352 0
-1284 -1353 0
-1284 -1354 0
-1284 -1355 0
-1284 -1356 0
-1284 -1357 0
-1285 -1286 0
-1285 -1287 0
-1285 -1288 0
-1285 -1289 0
-1285 -1290 0
-1285 -1291 0
-1285 -1292 0
-1285 -1293 0
-1285 -1294 0
-1285 -1295 0
-1285 -1296 0
-1285 -1297 0
-1285 -1298 0
-1285 -1299 0
-1285 -1300 0
-1285 -1301 0
-1285 -1302 0
-1285 -1303 0
-1285 -1304 0
-1285 -1305 0
-1285 -1306 0
-1285 -1307 0
-1285 -1308 0
-1285 -1309 0
-1285 -1310 0
-1285 -1311 0
-1285 -1312 0
-1285 -1313 0
-1285 -1314 0
-1285 -1315 0
-1285 -1316 0
-1285 -1317 0
-1285 -1318 0
-1285 -1319 0
-1285 -1320 0
-1285 -1321 0
-1285 -1322 0
-1285 -1323 0
-1285 -1324 0
-1285 -1325 0
-1285 -1326 0
-1285 -1327 0
-1285 -1328 0
-1285 -1329 0
-1285 -1330 0
-1285 -1331 0
-1285 -1332 0
-1285 -1333 0
-1285 -1334 0
-1285 -1335 0
-1285 -1336 0
-1285 -1337 0
-1285 -1338 0
-1285 -1339 0
-1285 -1340 0
-1285 -1341 0
-1285 -1342 0
-1285 -1343 0
-1285 -1344 0
-1285 -1345 0
-1285 -1346 0
-1285 -1347 0
-1285 -1348 0
-1285 -1349 0
-1285 -1350 0
-1285 -1351 0
-1285 -1352 0
-1285 -1353 0
-1285 -1354 0
-1285 -1355 0
-1285 -1356 0
-1285 -1357 0
-1286 -1287 0
-1286 -1288 0
-1286 -1289 0
-1286 -1290 0
-1286 -1291 0
-1286 -1292 0
-1286 -1293 0
-1286 -1294 0
-1286 -1295 0
-1286 -1296 0
-1286 -1297 0
-1286 -1298 0
-1286 -1299 0
-1286 -1300 0
-1286 -1301 0
-1286 -1302 0
-1286 -1303 0
-1286 -1304 0
-1286 -1305 0
-1286 -1306 0
-1286 -1307 0
-1286 -1308 0
-1286 -1309 0
-1286 -1310 0
-1286 -1311 0
-1286 -1312 0
-1286 -1313 0
-1286 -1314 0
-1286 -1315 0
-1286 -1316 0
-1286 -1317 0
-1286 -1318 0
-1286 -1319 0
-1286 -1320 0
-1286 -1321 0
-1286 -1322 0
-1286 -1323 0
-1286 -1324 0
-1286 -1325 0
-1286 -1326 0
-1286 -1327 0
-1286 -1328 0
-1286 -1329 0
-1286 -1330 0
-1286 -1331 0
-1286 -1332 0
-1286 -1333 0
-1286 -1334 0
-1286 -1335 0
-1286 -1336 0
-1286 -1337 0
-1286 -1338 0
-1286 -1339 0
-1286 -1340 0
-1286 -1341 0
-1286 -1342 0
-1286 -1343 0
-1286 -1344 0
-1286 -1345 0
-1286 -1346 0
-1286 -1347 0
-1286 -1348 0
-1286 -1349 0
-1286 -1350 0
-1286 -1351 0
-1286 -1352 0
-1286 -1353 0
-1286 -1354 0
-1286 -1355 0
-1286 -1356 0
-1286 -1357 0
-1287 -1288 0
-1287 -1289 0
-1287 -1290 0
-1287 -1291 0
-1287 -1292 0
-1287 -1293 0
-1287 -1294 0
-1287 -1295 0
-1287 -1296 0
-1287 -1297 0
-1287 -1298 0
-1287 -1299 0
-1287 -1300 0
-1287 -1301 0
-1287 -1302 0
-1287 -1303 0
-1287 -1304 0
-1287 -1305 0
-1287 -1306 0
-1287 -1307 0
-1287 -1308 0
-1287 -1309 0
-1287 -1310 0
-1287 -1311 0
-1287 -1312 0
-1287 -1313 0
-1287 -1314 0
-1287 -1315 0
-1287 -1316 0
-1287 -1317 0
-1287 -1318 0
-1287 -1319 0
-1287 -1320 0
-1287 -1321 0
-1287 -1322 0
-1287 -1323 0
-1287 -1324 0
-1287 -1325 0
-1287 -1326 0
-1287 -1327 0
-1287 -1328 0
-1287 -1329 0
-1287 -1330 0
-1287 -1331 0
-1287 -1332 0
-1287 -1333 0
-1287 -1334 0
-1287 -1335 0
-1287 -1336 0
-1287 -1337 0
-1287 -1338 0
-1287 -1339 0
-1287 -1340 0
-1287 -1341 0
-1287 -1342 0
-1287 -1343 0
-1287 -1344 0
-1287 -1345 0
-1287 -1346 0
-1287 -1347 0
-1287 -1348 0
-1287 -1349 0
-1287 -1350 0
-1287 -1351 0
-1287 -1352 0
-1287 -1353 0
-1287 -1354 0
-1287 -1355 0
-1287 -1356 0
-1287 -1357 0
-1288 -1289 0
-1288 -1290 0
-1288 -1291 0
-1288 -1292 0
-1288 -1293 0
-1288 -1294 0
-1288 -1295 0
-1288 -1296 0
-1288 -1297 0
-1288 -1298 0
-1288 -1299 0
-1288 -1300 0
-1288 -1301 0
-1288 -1302 0
-1288 -1303 0
-1288 -1304 0
-1288 -1305 0
-1288 -1306 0
-1288 -1307 0
-1288 -1308 0
-1288 -1309 0
-1288 -1310 0
-1288 -1311 0
-1288 -1312 0
-1288 -1313 0
-1288 -1314 0
-1288 -1315 0
-1288 -1316 0
-1288 -1317 0
-1288 -1318 0
-1288 -1319 0
-1288 -1320 0
-1288 -1321 0
-1288 -1322 0
-1288 -1323 0
-1288 -1324 0
-1288 -1325 0
-1288 -1326 0
-1288 -1327 0
-1288 -1328 0
-1288 -1329 0
-1288 -1330 0
-1288 -1331 0
-1288 -1332 0
-1288 -1333 0
-1288 -1334 0
-1288 -1335 0
-1288 -1336 0
-1288 -1337 0
-1288 -1338 0
-1288 -1339 0
-1288 -1340 0
-1288 -1341 0
-1288 -1342 0
-1288 -1343 0
-1288 -1344 0
-1288 -1345 0
-1288 -1346 0
-1288 -1347 0
-1288 -1348 0
-1288 -1349 0
-1288 -1350 0
-1288 -1351 0
-1288 -1352 0
-1288 -1353 0
-1288 -1354 0
-1288 -1355 0
-1288 -1356 0
-1288 -1357 0
-1289 -1290 0
-1289 -1291 0
-1289 -1292 0
-1289 -1293 0
-1289 -1294 0
-1289 -1295 0
-1289 -1296 0
-1289 -1297 0
-1289 -1298 0
-1289 -1299 0
-1289 -1300 0
-1289 -1301 0
-1289 -1302 0
-1289 -1303 0
-1289 -1304 0
-1289 -1305 0
-1289 -1306 0
-1289 -1307 0
-1289 -1308 0
-1289 -1309 0
-1289 -1310 0
-1289 -1311 0
-1289 -1312 0
-1289 -1313 0
-1289 -1314 0
-1289 -1315 0
-1289 -1316 0
-1289 -1317 0
-1289 -1318 0
-1289 -1319 0
-1289 -1320 0
-1289 -1321 0
-1289 -1322 0
-1289 -1323 0
-1289 -1324 0
-1289 -1325 0
-1289 -1326 0
-1289 -1327 0
-1289 -1328 0
-1289 -1329 0
-1289 -1330 0
-1289 -1331 0
-1289 -1332 0
-1289 -1333 0
-1289 -1334 0
-1289 -1335 0
-1289 -1336 0
-1289 -1337 0
-1289 -1338 0
-1289 -1339 0
-1289 -1340 0
-1289 -1341 0
-1289 -1342 0
-1289 -1343 0
-1289 -1344 0
-1289 -1345 0
-1289 -1346 0
-1289 -1347 0
-1289 -1348 0
-1289 -1349 0
-1289 -1350 0
-1289 -1351 0
-1289 -1352 0
-1289 -1353 0
-1289 -1354 0
-1289 -1355 0
-1289 -1356 0
-1289 -1357 0
-1290 -1291 0
-1290 -1292 0
-1290 -1293 0
-1290 -1294 0
-1290 -1295 0
-1290 -1296 0
-1290 -1297 0
-1290 -1298 0
-1290 -1299 0
-1290 -1300 0
-1290 -1301 0
-1290 -1302 0
-1290 -1303 0
-1290 -1304 0
-1290 -1305 0
-1290 -1306 0
-1290 -1307 0
-1290 -1308 0
-1290 -1309 0
-1290 -1310 0
-1290 -1311 0
-1290 -1312 0
-1290 -1313 0
-1290 -1314 0
-1290 -1315 0
-1290 -1316 0
-1290 -1317 0
-1290 -1318 0
-1290 -1319 0
-1290 -1320 0
-1290 -1321 0
-1290 -1322 0
-1290 -1323 0
-1290 -1324 0
-1290 -1325 0
-1290 -1326 0
-1290 -1327 0
-1290 -1328 0
-1290 -1329 0
-1290 -1330 0
-1290 -1331 0
-1290 -1332 0
-1290 -1333 0
-1290 -1334 0
-1290 -1335 0
-1290 -1336 0
-1290 -1337 0
-1290 -1338 0
-1290 -1339 0
-1290 -1340 0
-1290 -1341 0
-1290 -1342 0
-1290 -1343 0
-1290 -1344 0
-1290 -1345 0
-1290 -1346 0
-1290 -1347 0
-1290 -1348 0
-1290 -1349 0
-1290 -1350 0
-1290 -1351 0
-1290 -1352 0
-1290 -1353 0
-1290 -1354 0
-1290 -1355 0
-1290 -1356 0
-1290 -1357 0
-1291 -1292 0
-1291 -1293 0
-1291 -1294 0
-1291 -1295 0
-1291 -1296 0
-1291 -1297 0
-1291 -1298 0
-1291 -1299 0
-1291 -1300 0
-1291 -1301 0
-1291 -1302 0
-1291 -1303 0
-1291 -1304 0
-1291 -1305 0
-1291 -1306 0
-1291 -1307 0
-1291 -1308 0
-1291 -1309 0
-1291 -1310 0
-1291 -1311 0
-1291 -1312 0
-1291 -1313 0
-1291 -1314 0
-1291 -1315 0
-1291 -1316 0
-1291 -1317 0
-1291 -1318 0
-1291 -1319 0
-1291 -1320 0
-1291 -1321 0
-1291 -1322 0
-1291 -1323 0
-1291 -1324 0
-1291 -1325 0
-1291 -1326 0
-1291 -1327 0
-1291 -1328 0
-1291 -1329 0
-1291 -1330 0
-1291 -1331 0
-1291 -1332 0
-1291 -1333 0
-1291 -1334 0
-1291 -1335 0
-1291 -1336 0
-1291 -1337 0
-1291 -1338 0
-1291 -1339 0
-1291 -1340 0
-1291 -1341 0
-1291 -1342 0
-1291 -1343 0
-1291 -1344 0
-1291 -1345 0
-1291 -1346 0
-1291 -1347 0
-1291 -1348 0
-1291 -1349 0
-1291 -1350 0
-1291 -1351 0
-1291 -1352 0
-1291 -1353 0
-1291 -1354 0
-1291 -1355 0
-1291 -1356 0
-1291 -1357 0
-1292 -1293 0
-1292 -1294 0
-1292 -1295 0
-1292 -1296 0
-1292 -1297 0
-1292 -1298 0
-1292 -1299 0
-1292 -1300 0
-1292 -1301 0
-1292 -1302 0
-1292 -1303 0
-1292 -1304 0
-1292 -1305 0
-1292 -1306 0
-1292 -1307 0
-1292 -1308 0
-1292 -1309 0
-1292 -1310 0
-1292 -1311 0
-1292 -1312 0
-1292 -1313 0
-1292 -1314 0
-1292 -1315 0
-1292 -1316 0
-1292 -1317 0
-1292 -1318 0
-1292 -1319 0
-1292 -1320 0
-1292 -1321 0
-1292 -1322 0
-1292 -1323 0
-1292 -1324 0
-1292 -1325 0
-1292 -1326 0
-1292 -1327 0
-1292 -1328 0
-1292 -1329 0
-1292 -1330 0
-1292 -1331 0
-1292 -1332 0
-1292 -1333 0
-1292 -1334 0
-1292 -1335 0
-1292 -1336 0
-1292 -1337 0
-1292 -1338 0
-1292 -1339 0
-1292 -1340 0
-1292 -1341 0
-1292 -1342 0
-1292 -1343 0
-1292 -1344 0
-1292 -1345 0
-1292 -1346 0
-1292 -1347 0
-1292 -1348 0
-1292 -1349 0
-1292 -1350 0
-1292 -1351 0
-1292 -1352 0
-1292 -1353 0
-1292 -1354 0
-1292 -1355 0
-1292 -1356 0
-1292 -1357 0
-1293 -1294 0
-1293 -1295 0
-1293 -1296 0
-1293 -1297 0
-1293 -1298 0
-1293 -1299 0
-1293 -1300 0
-1293 -1301 0
-1293 -1302 0
-1293 -1303 0
-1293 -1304 0
-1293 -1305 0
-1293 -1306 0
-1293 -1307 0
-1293 -1308 0
-1293 -1309 0
-1293 -1310 0
-1293 -1311 0
-1293 -1312 0
-1293 -1313 0
-1293 -1314 0
-1293 -1315 0
-1293 -1316 0
-1293 -1317 0
-1293 -1318 0
-1293 -1319 0
-1293 -1320 0
-1293 -1321 0
-1293 -1322 0
-1293 -1323 0
-1293 -1324 0
-1293 -1325 0
-1293 -1326 0
-1293 -1327 0
-1293 -1328 0
-1293 -1329 0
-1293 -1330 0
-1293 -1331 0
-1293 -1332 0
-1293 -1333 0
-1293 -1334 0
-1293 -1335 0
-1293 -1336 0
-1293 -1337 0
-1293 -1338 0
-1293 -1339 0
-1293 -1340 0
-1293 -1341 0
-1293 -1342 0
-1293 -1343 0
-1293 -1344 0
-1293 -1345 0
-1293 -1346 0
-1293 -1347 0
-1293 -1348 0
-1293 -1349 0
-1293 -1350 0
-1293 -1351 0
-1293 -1352 0
-1293 -1353 0
-1293 -1354 0
-1293 -1355 0
-1293 -1356 0
-1293 -1357 0
-1294 -1295 0
-1294 -1296 0
-1294 -1297 0
-1294 -1298 0
-1294 -1299 0
-1294 -1300 0
-1294 -1301 0
-1294 -1302 0
-1294 -1303 0
-1294 -1304 0
-1294 -1305 0
-1294 -1306 0
-1294 -1307 0
-1294 -1308 0
-1294 -1309 0
-1294 -1310 0
-1294 -1311 0
-1294 -1312 0
-1294 -1313 0
-1294 -1314 0
-1294 -1315 0
-1294 -1316 0
-1294 -1317 0
-1294 -1318 0
-1294 -1319 0
-1294 -1320 0
-1294 -1321 0
-1294 -1322 0
-1294 -1323 0
-1294 -1324 0
-1294 -1325 0
-1294 -1326 0
-1294 -1327 0
-1294 -1328 0
-1294 -1329 0
-1294 -1330 0
-1294 -1331 0
-1294 -1332 0
-1294 -1333 0
-1294 -1334 0
-1294 -1335 0
-1294 -1336 0
-1294 -1337 0
-1294 -1338 0
-1294 -1339 0
-1294 -1340 0
-1294 -1341 0
-1294 -1342 0
-1294 -1343 0
-1294 -1344 0
-1294 -1345 0
-1294 -1346 0
-1294 -1347 0
-1294 -1348 0
-1294 -1349 0
-1294 -1350 0
-1294 -1351 0
-1294 -1352 0
-1294 -1353 0
-1294 -1354 0
-1294 -1355 0
-1294 -1356 0
-1294 -1357 0
-1295 -1296 0
-1295 -1297 0
-1295 -1298 0
-1295 -1299 0
-1295 -1300 0
-1295 -1301 0
-1295 -1302 0
-1295 -1303 0
-1295 -1304 0
-1295 -1305 0
-1295 -1306 0
-1295 -1307 0
-1295 -1308 0
-1295 -1309 0
-1295 -1310 0
-1295 -1311 0
-1295 -1312 0
-1295 -1313 0
-1295 -1314 0
-1295 -1315 0
-1295 -1316 0
-1295 -1317 0
-1295 -1318 0
-1295 -1319 0
-1295 -1320 0
-1295 -1321 0
-1295 -1322 0
-1295 -1323 0
-1295 -1324 0
-1295 -1325 0
-1295 -1326 0
-1295 -1327 0
-1295 -1328 0
-1295 -1329 0
-1295 -1330 0
-1295 -1331 0
-1295 -1332 0
-1295 -1333 0
-1295 -1334 0
-1295 -1335 0
-1295 -1336 0
-1295 -1337 0
-1295 -1338 0
-1295 -1339 0
-1295 -1340 0
-1295 -1341 0
-1295 -1342 0
-1295 -1343 0
-1295 -1344 0
-1295 -1345 0
-1295 -1346 0
-1295 -1347 0
-1295 -1348 0
-1295 -1349 0
-1295 -1350 0
-1295 -1351 0
-1295 -1352 0
-1295 -1353 0
-1295 -1354 0
-1295 -1355 0
-1295 -1356 0
-1295 -1357 0
-1296 -1297 0
-1296 -1298 0
-1296 -1299 0
-1296 -1300 0
-1296 -1301 0
-1296 -1302 0
-1296 -1303 0
-1296 -1304 0
-1296 -1305 0
-1296 -1306 0
-1296 -1307 0
-1296 -1308 0
-1296 -1309 0
-1296 -1310 0
-1296 -1311 0
-1296 -1312 0
-1296 -1313 0
-1296 -1314 0
-1296 -1315 0
-1296 -1316 0
-1296 -1317 0
-1296 -1318 0
-1296 -1319 0
-1296 -1320 0
-1296 -1321 0
-1296 -1322 0
-1296 -1323 0
-1296 -1324 0
-1296 -1325 0
-1296 -1326 0
-1296 -1327 0
-1296 -1328 0
-1296 -1329 0
-1296 -1330 0
-1296 -1331 0
-1296 -1332 0
-1296 -1333 0
-1296 -1334 0
-1296 -1335 0
-1296 -1336 0
-1296 -1337 0
-1296 -1338 0
-1296 -1339 0
-1296 -1340 0
-1296 -1341 0
-1296 -1342 0
-1296 -1343 0
-1296 -1344 0
-1296 -1345 0
-1296 -1346 0
-1296 -1347 0
-1296 -1348 0
-1296 -1349 0
-1296 -1350 0
-1296 -1351 0
-1296 -1352 0
-1296 -1353 0
-1296 -1354 0
-1296 -1355 0
-1296 -1356 0
-1296 -1357 0
-1297 -1298 0
-1297 -1299 0
-1297 -1300 0
-1297 -1301 0
-1297 -1302 0
-1297 -1303 0
-1297 -1304 0
-1297 -1305 0
-1297 -1306 0
-1297 -1307 0
-1297 -1308 0
-1297 -1309 0
-1297 -1310 0
-1297 -1311 0
-1297 -1312 0
-1297 -1313 0
-1297 -1314 0
-1297 -1315 0
-1297 -1316 0
-1297 -1317 0
-1297 -1318 0
-1297 -1319 0
-1297 -1320 0
-1297 -1321 0
-1297 -1322 0
-1297 -1323 0
-1297 -1324 0
-1297 -1325 0
-1297 -1326 0
-1297 -1327 0
-1297 -1328 0
-1297 -1329 0
-1297 -1330 0
-1297 -1331 0
-1297 -1332 0
-1297 -1333 0
-1297 -1334 0
-1297 -1335 0
-1297 -1336 0
-1297 -1337 0
-1297 -1338 0
-1297 -1339 0
-1297 -1340 0
-1297 -1341 0
-1297 -1342 0
-1297 -1343 0
-1297 -1344 0
-1297 -1345 0
-1297 -1346 0
-1297 -1347 0
-1297 -1348 0
-1297 -1349 0
-1297 -1350 0
-1297 -1351 0
-1297 -1352 0
-1297 -1353 0
-1297 -1354 0
-1297 -1355 0
-1297 -1356 0
-1297 -1357 0
-1298 -1299 0
-1298 -1300 0
-1298 -1301 0
-1298 -1302 0
-1298 -1303 0
-1298 -1304 0
-1298 -1305 0
-1298 -1306 0
-1298 -1307 0
-1298 -1308 0
-1298 -1309 0
-1298 -1310 0
-1298 -1311 0
-1298 -1312 0
-1298 -1313 0
-1298 -1314 0
-1298 -1315 0
-1298 -1316 0
-1298 -1317 0
-1298 -1318 0
-1298 -1319 0
-1298 -1320 0
-1298 -1321 0
-1298 -1322 0
-1298 -1323 0
-1298 -1324 0
-1298 -1325 0
-1298 -1326 0
-1298 -1327 0
-1298 -1328 0
-1298 -1329 0
-1298 -1330 0
-1298 -1331 0
-1298 -1332 0
-1298 -1333 0
-1298 -1334 0
-1298 -1335 0
-1298 -1336 0
-1298 -1337 0
-1298 -1338 0
-1298 -1339 0
-1298 -1340 0
-1298 -1341 0
-1298 -1342 0
-1298 -1343 0
-1298 -1344 0
-1298 -1345 0
-1298 -1346 0
-1298 -1347 0
-1298 -1348 0
-1298 -1349 0
-1298 -1350 0
-1298 -1351 0
-1298 -1352 0
-1298 -1353 0
-1298 -1354 0
-1298 -1355 0
-1298 -1356 0
-1298 -1357 0
-1299 -1300 0
-1299 -1301 0
-1299 -1302 0
-1299 -1303 0
-1299 -1304 0
-1299 -1305 0
-1299 -1306 0
-1299 -1307 0
-1299 -1308 0
-1299 -1309 0
-1299 -1310 0
-1299 -1311 0
-1299 -1312 0
-1299 -1313 0
-1299 -1314 0
-1299 -1315 0
-1299 -1316 0
-1299 -1317 0
-1299 -1318 0
-1299 -1319 0
-1299 -1320 0
-1299 -1321 0
-1299 -1322 0
-1299 -1323 0
-1299 -1324 0
-1299 -1325 0
-1299 -1326 0
-1299 -1327 0
-1299 -1328 0
-1299 -1329 0
-1299 -1330 0
-1299 -1331 0
-1299 -1332 0
-1299 -1333 0
-1299 -1334 0
-1299 -1335 0
-1299 -1336 0
-1299 -1337 0
-1299 -1338 0
-1299 -1339 0
-1299 -1340 0
-1299 -1341 0
-1299 -1342 0
-1299 -1343 0
-1299 -1344 0
-1299 -1345 0
-1299 -1346 0
-1299 -1347 0
-1299 -1348 0
-1299 -1349 0
-1299 -1350 0
-1299 -1351 0
-1299 -1352 0
-1299 -1353 0
-1299 -1354 0
-1299 -1355 0
-1299 -1356 0
-1299 -1357 0
-1300 -1301 0
-1300 -1302 0
-1300 -1303 0
-1300 -1304 0
-1300 -1305 0
-1300 -1306 0
-1300 -1307 0
-1300 -1308 0
-1300 -1309 0
-1300 -1310 0
-1300 -1311 0
-1300 -1312 0
-1300 -1313 0
-1300 -1314 0
-1300 -1315 0
-1300 -1316 0
-1300 -1317 0
-1300 -1318 0
-1300 -1319 0
-1300 -1320 0
-1300 -1321 0
-1300 -1322 0
-1300 -1323 0
-1300 -1324 0
-1300 -1325 0
-1300 -1326 0
-1300 -1327 0
-1300 -1328 0
-1300 -1329 0
-1300 -1330 0
-1300 -1331 0
-1300 -1332 0
-1300 -1333 0
-1300 -1334 0
-1300 -1335 0
-1300 -1336 0
-1300 -1337 0
-1300 -1338 0
-1300 -1339 0
-1300 -1340 0
-1300 -1341 0
-1300 -1342 0
-1300 -1343 0
-1300 -1344 0
-1300 -1345 0
-1300 -1346 0
-1300 -1347 0
-1300 -1348 0
-1300 -1349 0
-1300 -1350 0
-1300 -1351 0
-1300 -1352 0
-1300 -1353 0
-1300 -1354 0
-1300 -1355 0
-1300 -1356 0
-1300 -1357 0
-1301 -1302 0
-1301 -1303 0
-1301 -1304 0
-1301 -1305 0
-1301 -1306 0
-1301 -1307 0
-1301 -1308 0
-1301 -1309 0
-1301 -1310 0
-1301 -1311 0
-1301 -1312 0
-1301 -1313 0
-1301 -1314 0
-1301 -1315 0
-1301 -1316 0
-1301 -1317 0
-1301 -1318 0
-1301 -1319 0
-1301 -1320 0
-1301 -1321 0
-1301 -1322 0
-1301 -1323 0
-1301 -1324 0
-1301 -1325 0
-1301 -1326 0
-1301 -1327 0
-1301 -1328 0
-1301 -1329 0
-1301 -1330 0
-1301 -1331 0
-1301 -1332 0
-1301 -1333 0
-1301 -1334 0
-1301 -1335 0
-1301 -1336 0
-1301 -1337 0
-1301 -1338 0
-1301 -1339 0
-1301 -1340 0
-1301 -1341 0
-1301 -1342 0
-1301 -1343 0
-1301 -1344 0
-1301 -1345 0
-1301 -1346 0
-1301 -1347 0
-1301 -1348 0
-1301 -1349 0
-1301 -1350 0
-1301 -1351 0
-1301 -1352 0
-1301 -1353 0
-1301 -1354 0
-1301 -1355 0
-1301 -1356 0
-1301 -1357 0
-1302 -1303 0
-1302 -1304 0
-1302 -1305 0
-1302 -1306 0
-1302 -1307 0
-1302 -1308 0
-1302 -1309 0
-1302 -1310 0
-1302 -1311 0
-1302 -1312 0
-1302 -1313 0
-1302 -1314 0
-1302 -1315 0
-1302 -1316 0
-1302 -1317 0
-1302 -1318 0
-1302 -1319 0
-1302 -1320 0
-1302 -1321 0
-1302 -1322 0
-1302 -1323 0
-1302 -1324 0
-1302 -1325 0
-1302 -1326 0
-1302 -1327 0
-1302 -1328 0
-1302 -1329 0
-1302 -1330 0
-1302 -1331 0
-1302 -1332 0
-1302 -1333 0
-1302 -1334 0
-1302 -1335 0
-1302 -1336 0
-1302 -1337 0
-1302 -1338 0
-1302 -1339 0
-1302 -1340 0
-1302 -1341 0
-1302 -1342 0
-1302 -1343 0
-1302 -1344 0
-1302 -1345 0
-1302 -1346 0
-1302 -1347 0
-1302 -1348 0
-1302 -1349 0
-1302 -1350 0
-1302 -1351 0
-1302 -1352 0
-1302 -1353 0
-1302 -1354 0
-1302 -1355 0
-1302 -1356 0
-1302 -1357 0
-1303 -1304 0
-1303 -1305 0
-1303 -1306 0
-1303 -1307 0
-1303 -1308 0
-1303 -1309 0
-1303 -1310 0
-1303 -1311 0
-1303 -1312 0
-1303 -1313 0
-1303 -1314 0
-1303 -1315 0
-1303 -1316 0
-1303 -1317 0
-1303 -1318 0
-1303 -1319 0
-1303 -1320 0
-1303 -1321 0
-1303 -1322 0
-1303 -1323 0
-1303 -1324 0
-1303 -1325 0
-1303 -1326 0
-1303 -1327 0
-1303 -1328 0
-1303 -1329 0
-1303 -1330 0
-1303 -1331 0
-1303 -1332 0
-1303 -1333 0
-1303 -1334 0
-1303 -1335 0
-1303 -1336 0
-1303 -1337 0
-1303 -1338 0
-1303 -1339 0
-1303 -1340 0
-1303 -1341 0
-1303 -1342 0
-1303 -1343 0
-1303 -1344 0
-1303 -1345 0
-1303 -1346 0
-1303 -1347 0
-1303 -1348 0
-1303 -1349 0
-1303 -1350 0
-1303 -1351 0
-1303 -1352 0
-1303 -1353 0
-1303 -1354 0
-1303 -1355 0
-1303 -1356 0
-1303 -1357 0
-1304 -1305 0
-1304 -1306 0
-1304 -1307 0
-1304 -1308 0
-1304 -1309 0
-1304 -1310 0
-1304 -1311 0
-1304 -1312 0
-1304 -1313 0
-1304 -1314 0
-1304 -1315 0
-1304 -1316 0
-1304 -1317 0
-1304 -1318 0
-1304 -1319 0
-1304 -1320 0
-1304 -1321 0
-1304 -1322 0
-1304 -1323 0
-1304 -1324 0
-1304 -1325 0
-1304 -1326 0
-1304 -1327 0
-1304 -1328 0
-1304 -1329 0
-1304 -1330 0
-1304 -1331 0
-1304 -1332 0
-1304 -1333 0
-1304 -1334 0
-1304 -1335 0
-1304 -1336 0
-1304 -1337 0
-1304 -1338 0
-1304 -1339 0
-1304 -1340 0
-1304 -1341 0
-1304 -1342 0
-1304 -1343 0
-1304 -1344 0
-1304 -1345 0
-1304 -1346 0
-1304 -1347 0
-1304 -1348 0
-1304 -1349 0
-1304 -1350 0
-1304 -1351 0
-1304 -1352 0
-1304 -1353 0
-1304 -1354 0
-1304 -1355 0
-1304 -1356 0
-1304 -1357 0
-1305 -1306 0
-1305 -1307 0
-1305 -1308 0
-1305 -1309 0
-1305 -1310 0
-1305 -1311 0
-1305 -1312 0
-1305 -1313 0
-1305 -1314 0
-1305 -1315 0
-1305 -1316 0
-1305 -1317 0
-1305 -1318 0
-1305 -1319 0
-1305 -1320 0
-1305 -1321 0
-1305 -1322 0
-1305 -1323 0
-1305 -1324 0
-1305 -1325 0
-1305 -1326 0
-1305 -1327 0
-1305 -1328 0
-1305 -1329 0
-1305 -1330 0
-1305 -1331 0
-1305 -1332 0
-1305 -1333 0
-1305 -1334 0
-1305 -1335 0
-1305 -1336 0
-1305 -1337 0
-1305 -1338 0
-1305 -1339 0
-1305 -1340 0
-1305 -1341 0
-1305 -1342 0
-1305 -1343 0
-1305 -1344 0
-1305 -1345 0
-1305 -1346 0
-1305 -1347 0
-1305 -1348 0
-1305 -1349 0
-1305 -1350 0
-1305 -1351 0
-1305 -1352 0
-1305 -1353 0
-1305 -1354 0
-1305 -1355 0
-1305 -1356 0
-1305 -1357 0
-1306 -1307 0
-1306 -1308 0
-1306 -1309 0
-1306 -1310 0
-1306 -1311 0
-1306 -1312 0
-1306 -1313 0
-1306 -1314 0
-1306 -1315 0
-1306 -1316 0
-1306 -1317 0
-1306 -1318 0
-1306 -1319 0
-1306 -1320 0
-1306 -1321 0
-1306 -1322 0
-1306 -1323 0
-1306 -1324 0
-1306 -1325 0
-1306 -1326 0
-1306 -1327 0
-1306 -1328 0
-1306 -1329 0
-1306 -1330 0
-1306 -1331 0
-1306 -1332 0
-1306 -1333 0
-1306 -1334 0
-1306 -1335 0
-1306 -1336 0
-1306 -1337 0
-1306 -1338 0
-1306 -1339 0
-1306 -1340 0
-1306 -1341 0
-1306 -1342 0
-1306 -1343 0
-1306 -1344 0
-1306 -1345 0
-1306 -1346 0
-1306 -1347 0
-1306 -1348 0
-1306 -1349 0
-1306 -1350 0
-1306 -1351 0
-1306 -1352 0
-1306 -1353 0
-1306 -1354 0
-1306 -1355 0
-1306 -1356 0
-1306 -1357 0
-1307 -1308 0
-1307 -1309 0
-1307 -1310 0
-1307 -1311 0
-1307 -1312 0
-1307 -1313 0
-1307 -1314 0
-1307 -1315 0
-1307 -1316 0
-1307 -1317 0
-1307 -1318 0
-1307 -1319 0
-1307 -1320 0
-1307 -1321 0
-1307 -1322 0
-1307 -1323 0
-1307 -1324 0
-1307 -1325 0
-1307 -1326 0
-1307 -1327 0
-1307 -1328 0
-1307 -1329 0
-1307 -1330 0
-1307 -1331 0
-1307 -1332 0
-1307 -1333 0
-1307 -1334 0
-1307 -1335 0
-1307 -1336 0
-1307 -1337 0
-1307 -1338 0
-1307 -1339 0
-1307 -1340 0
-1307 -1341 0
-1307 -1342 0
-1307 -1343 0
-1307 -1344 0
-1307 -1345 0
-1307 -1346 0
-1307 -1347 0
-1307 -1348 0
-1307 -1349 0
-1307 -1350 0
-1307 -1351 0
-1307 -1352 0
-1307 -1353 0
-1307 -1354 0
-1307 -1355 0
-1307 -1356 0
-1307 -1357 0
-1308 -1309 0
-1308 -1310 0
-1308 -1311 0
-1308 -1312 0
-1308 -1313 0
-1308 -1314 0
-1308 -1315 0
-1308 -1316 0
-1308 -1317 0
-1308 -1318 0
-1308 -1319 0
-1308 -1320 0
-1308 -1321 0
-1308 -1322 0
-1308 -1323 0
-1308 -1324 0
-1308 -1325 0
-1308 -1326 0
-1308 -1327 0
-1308 -1328 0
-1308 -1329 0
-1308 -1330 0
-1308 -1331 0
-1308 -1332 0
-1308 -1333 0
-1308 -1334 0
-1308 -1335 0
-1308 -1336 0
-1308 -1337 0
-1308 -1338 0
-1308 -1339 0
-1308 -1340 0
-1308 -1341 0
-1308 -1342 0
-1308 -1343 0
-1308 -1344 0
-1308 -1345 0
-1308 -1346 0
-1308 -1347 0
-1308 -1348 0
-1308 -1349 0
-1308 -1350 0
-1308 -1351 0
-1308 -1352 0
-1308 -1353 0
-1308 -1354 0
-1308 -1355 0
-1308 -1356 0
-1308 -1357 0
-1309 -1310 0
-1309 -1311 0
-1309 -1312 0
-1309 -1313 0
-1309 -1314 0
-1309 -1315 0
-1309 -1316 0
-1309 -1317 0
-1309 -1318 0
-1309 -1319 0
-1309 -1320 0
-1309 -1321 0
-1309 -1322 0
-1309 -1323 0
-1309 -1324 0
-1309 -1325 0
-1309 -1326 0
-1309 -1327 0
-1309 -1328 0
-1309 -1329 0
-1309 -1330 0
-1309 -1331 0
-1309 -1332 0
-1309 -1333 0
-1309 -1334 0
-1309 -1335 0
-1309 -1336 0
-1309 -1337 0
-1309 -1338 0
-1309 -1339 0
-1309 -1340 0
-1309 -1341 0
-1309 -1342 0
-1309 -1343 0
-1309 -1344 0
-1309 -1345 0
-1309 -1346 0
-1309 -1347 0
-1309 -1348 0
-1309 -1349 0
-1309 -1350 0
-1309 -1351 0
-1309 -1352 0
-1309 -1353 0
-1309 -1354 0
-1309 -1355 0
-1309 -1356 0
-1309 -1357 0
-1310 -1311 0
-1310 -1312 0
-1310 -1313 0
-1310 -1314 0
-1310 -1315 0
-1310 -1316 0
-1310 -1317 0
-1310 -1318 0
-1310 -1319 0
-1310 -1320 0
-1310 -1321 0
-1310 -1322 0
-1310 -1323 0
-1310 -1324 0
-1310 -1325 0
-1310 -1326 0
-1310 -1327 0
-1310 -1328 0
-1310 -1329 0
-1310 -1330 0
-1310 -1331 0
-1310 -1332 0
-1310 -1333 0
-1310 -1334 0
-1310 -1335 0
-1310 -1336 0
-1310 -1337 0
-1310 -1338 0
-1310 -1339 0
-1310 -1340 0
-1310 -1341 0
-1310 -1342 0
-1310 -1343 0
-1310 -1344 0
-1310 -1345 0
-1310 -1346 0
-1310 -1347 0
-1310 -1348 0
-1310 -1349 0
-1310 -1350 0
-1310 -1351 0
-1310 -1352 0
-1310 -1353 0
-1310 -1354 0
-1310 -1355 0
-1310 -1356 0
-1310 -1357 0
-1311 -1312 0
-1311 -1313 0
-1311 -1314 0
-1311 -1315 0
-1311 -1316 0
-1311 -1317 0
-1311 -1318 0
-1311 -1319 0
-1311 -1320 0
-1311 -1321 0
-1311 -1322 0
-1311 -1323 0
-1311 -1324 0
-1311 -1325 0
-1311 -1326 0
-1311 -1327 0
-1311 -1328 0
-1311 -1329 0
-1311 -1330 0
-1311 -1331 0
-1311 -1332 0
-1311 -1333 0
-1311 -1334 0
-1311 -1335 0
-1311 -1336 0
-1311 -1337 0
-1311 -1338 0
-1311 -1339 0
-1311 -1340 0
-1311 -1341 0
-1311 -1342 0
-1311 -1343 0
-1311 -1344 0
-1311 -1345 0
-1311 -1346 0
-1311 -1347 0
-1311 -1348 0
-1311 -1349 0
-1311 -1350 0
-1311 -1351 0
-1311 -1352 0
-1311 -1353 0
-1311 -1354 0
-1311 -1355 0
-1311 -1356 0
-1311 -1357 0
-1312 -1313 0
-1312 -1314 0
-1312 -1315 0
-1312 -1316 0
-1312 -1317 0
-1312 -1318 0
-1312 -1319 0
-1312 -1320 0
-1312 -1321 0
-1312 -1322 0
-1312 -1323 0
-1312 -1324 0
-1312 -1325 0
-1312 -1326 0
-1312 -1327 0
-1312 -1328 0
-1312 -1329 0
-1312 -1330 0
-1312 -1331 0
-1312 -1332 0
-1312 -1333 0
-1312 -1334 0
-1312 -1335 0
-1312 -1336 0
-1312 -1337 0
-1312 -1338 0
-1312 -1339 0
-1312 -1340 0
-1312 -1341 0
-1312 -1342 0
-1312 -1343 0
-1312 -1344 0
-1312 -1345 0
-1312 -1346 0
-1312 -1347 0
-1312 -1348 0
-1312 -1349 0
-1312 -1350 0
-1312 -1351 0
-1312 -1352 0
-1312 -1353 0
-1312 -1354 0
-1312 -1355 0
-1312 -1356 0
-1312 -1357 0
-1313 -1314 0
-1313 -1315 0
-1313 -1316 0
-1313 -1317 0
-1313 -1318 0
-1313 -1319 0
-1313 -1320 0
-1313 -1321 0
-1313 -1322 0
-1313 -1323 0
-1313 -1324 0
-1313 -1325 0
-1313 -1326 0
-1313 -1327 0
-1313 -1328 0
-1313 -1329 0
-1313 -1330 0
-1313 -1331 0
-1313 -1332 0
-1313 -1333 0
-1313 -1334 0
-1313 -1335 0
-1313 -1336 0
-1313 -1337 0
-1313 -1338 0
-1313 -1339 0
-1313 -1340 0
-1313 -1341 0
-1313 -1342 0
-1313 -1343 0
-1313 -1344 0
-1313 -1345 0
-1313 -1346 0
-1313 -1347 0
-1313 -1348 0
-1313 -1349 0
-1313 -1350 0
-1313 -1351 0
-1313 -1352 0
-1313 -1353 0
-1313 -1354 0
-1313 -1355 0
-1313 -1356 0
-1313 -1357 0
-1314 -1315 0
-1314 -1316 0
-1314 -1317 0
-1314 -1318 0
-1314 -1319 0
-1314 -1320 0
-1314 -1321 0
-1314 -1322 0
-1314 -1323 0
-1314 -1324 0
-1314 -1325 0
-1314 -1326 0
-1314 -1327 0
-1314 -1328 0
-1314 -1329 0
-1314 -1330 0
-1314 -1331 0
-1314 -1332 0
-1314 -1333 0
-1314 -1334 0
-1314 -1335 0
-1314 -1336 0
-1314 -1337 0
-1314 -1338 0
-1314 -1339 0
-1314 -1340 0
-1314 -1341 0
-1314 -1342 0
-1314 -1343 0
-1314 -1344 0
-1314 -1345 0
-1314 -1346 0
-1314 -1347 0
-1314 -1348 0
-1314 -1349 0
-1314 -1350 0
-1314 -1351 0
-1314 -1352 0
-1314 -1353 0
-1314 -1354 0
-1314 -1355 0
-1314 -1356 0
-1314 -1357 0
-1315 -1316 0
-1315 -1317 0
-1315 -1318 0
-1315 -1319 0
-1315 -1320 0
-1315 -1321 0
-1315 -1322 0
-1315 -1323 0
-1315 -1324 0
-1315 -1325 0
-1315 -1326 0
-1315 -1327 0
-1315 -1328 0
-1315 -1329 0
-1315 -1330 0
-1315 -1331 0
-1315 -1332 0
-1315 -1333 0
-1315 -1334 0
-1315 -1335 0
-1315 -1336 0
-1315 -1337 0
-1315 -1338 0
-1315 -1339 0
-1315 -1340 0
-1315 -1341 0
-1315 -1342 0
-1315 -1343 0
-1315 -1344 0
-1315 -1345 0
-1315 -1346 0
-1315 -1347 0
-1315 -1348 0
-1315 -1349 0
-1315 -1350 0
-1315 -1351 0
-1315 -1352 0
-1315 -1353 0
-1315 -1354 0
-1315 -1355 0
-1315 -1356 0
-1315 -1357 0
-1316 -1317 0
-1316 -1318 0
-1316 -1319 0
-1316 -1320 0
-1316 -1321 0
-1316 -1322 0
-1316 -1323 0
-1316 -1324 0
-1316 -1325 0
-1316 -1326 0
-1316 -1327 0
-1316 -1328 0
-1316 -1329 0
-1316 -1330 0
-1316 -1331 0
-1316 -1332 0
-1316 -1333 0
-1316 -1334 0
-1316 -1335 0
-1316 -1336 0
-1316 -1337 0
-1316 -1338 0
-1316 -1339 0
-1316 -1340 0
-1316 -1341 0
-1316 -1342 0
-1316 -1343 0
-1316 -1344 0
-1316 -1345 0
-1316 -1346 0
-1316 -1347 0
-1316 -1348 0
-1316 -1349 0
-1316 -1350 0
-1316 -1351 0
-1316 -1352 0
-1316 -1353 0
-1316 -1354 0
-1316 -1355 0
-1316 -1356 0
-1316 -1357 0
-1317 -1318 0
-1317 -1319 0
-1317 -1320 0
-1317 -1321 0
-1317 -1322 0
-1317 -1323 0
-1317 -1324 0
-1317 -1325 0
-1317 -1326 0
-1317 -1327 0
-1317 -1328 0
-1317 -1329 0
-1317 -1330 0
-1317 -1331 0
-1317 -1332 0
-1317 -1333 0
-1317 -1334 0
-1317 -1335 0
-1317 -1336 0
-1317 -1337 0
-1317 -1338 0
-1317 -1339 0
-1317 -1340 0
-1317 -1341 0
-1317 -1342 0
-1317 -1343 0
-1317 -1344 0
-1317 -1345 0
-1317 -1346 0
-1317 -1347 0
-1317 -1348 0
-1317 -1349 0
-1317 -1350 0
-1317 -1351 0
-1317 -1352 0
-1317 -1353 0
-1317 -1354 0
-1317 -1355 0
-1317 -1356 0
-1317 -1357 0
-1318 -1319 0
-1318 -1320 0
-1318 -1321 0
-1318 -1322 0
-1318 -1323 0
-1318 -1324 0
-1318 -1325 0
-1318 -1326 0
-1318 -1327 0
-1318 -1328 0
-1318 -1329 0
-1318 -1330 0
-1318 -1331 0
-1318 -1332 0
-1318 -1333 0
-1318 -1334 0
-1318 -1335 0
-1318 -1336 0
-1318 -1337 0
-1318 -1338 0
-1318 -1339 0
-1318 -1340 0
-1318 -1341 0
-1318 -1342 0
-1318 -1343 0
-1318 -1344 0
-1318 -1345 0
-1318 -1346 0
-1318 -1347 0
-1318 -1348 0
-1318 -1349 0
-1318 -1350 0
-1318 -1351 0
-1318 -1352 0
-1318 -1353 0
-1318 -1354 0
-1318 -1355 0
-1318 -1356 0
-1318 -1357 0
-1319 -1320 0
-1319 -1321 0
-1319 -1322 0
-1319 -1323 0
-1319 -1324 0
-1319 -1325 0
-1319 -1326 0
-1319 -1327 0
-1319 -1328 0
-1319 -1329 0
-1319 -1330 0
-1319 -1331 0
-1319 -1332 0
-1319 -1333 0
-1319 -1334 0
-1319 -1335 0
-1319 -1336 0
-1319 -1337 0
-1319 -1338 0
-1319 -1339 0
-1319 -1340 0
-1319 -1341 0
-1319 -1342 0
-1319 -1343 0
-1319 -1344 0
-1319 -1345 0
-1319 -1346 0
-1319 -1347 0
-1319 -1348 0
-1319 -1349 0
-1319 -1350 0
-1319 -1351 0
-1319 -1352 0
-1319 -1353 0
-1319 -1354 0
-1319 -1355 0
-1319 -1356 0
-1319 -1357 0
-1320 -1321 0
-1320 -1322 0
-1320 -1323 0
-1320 -1324 0
-1320 -1325 0
-1320 -1326 0
-1320 -1327 0
-1320 -1328 0
-1320 -1329 0
-1320 -1330 0
-1320 -1331 0
-1320 -1332 0
-1320 -1333 0
-1320 -1334 0
-1320 -1335 0
-1320 -1336 0
-1320 -1337 0
-1320 -1338 0
-1320 -1339 0
-1320 -1340 0
-1320 -1341 0
-1320 -1342 0
-1320 -1343 0
-1320 -1344 0
-1320 -1345 0
-1320 -1346 0
-1320 -1347 0
-1320 -1348 0
-1320 -1349 0
-1320 -1350 0
-1320 -1351 0
-1320 -1352 0
-1320 -1353 0
-1320 -1354 0
-1320 -1355 0
-1320 -1356 0
-1320 -1357 0
-1321 -1322 0
-1321 -1323 0
-1321 -1324 0
-1321 -1325 0
-1321 -1326 0
-1321 -1327 0
-1321 -1328 0
-1321 -1329 0
-1321 -1330 0
-1321 -1331 0
-1321 -1332 0
-1321 -1333 0
-1321 -1334 0
-1321 -1335 0
-1321 -1336 0
-1321 -1337 0
-1321 -1338 0
-1321 -1339 0
-1321 -1340 0
-1321 -1341 0
-1321 -1342 0
-1321 -1343 0
-1321 -1344 0
-1321 -1345 0
-1321 -1346 0
-1321 -1347 0
-1321 -1348 0
-1321 -1349 0
-1321 -1350 0
-1321 -1351 0
-1321 -1352 0
-1321 -1353 0
-1321 -1354 0
-1321 -1355 0
-1321 -1356 0
-1321 -1357 0
-1322 -1323 0
-1322 -1324 0
-1322 -1325 0
-1322 -1326 0
-1322 -1327 0
-1322 -1328 0
-1322 -1329 0
-1322 -1330 0
-1322 -1331 0
-1322 -1332 0
-1322 -1333 0
-1322 -1334 0
-1322 -1335 0
-1322 -1336 0
-1322 -1337 0
-1322 -1338 0
-1322 -1339 0
-1322 -1340 0
-1322 -1341 0
-1322 -1342 0
-1322 -1343 0
-1322 -1344 0
-1322 -1345 0
-1322 -1346 0
-1322 -1347 0
-1322 -1348 0
-1322 -1349 0
-1322 -1350 0
-1322 -1351 0
-1322 -1352 0
-1322 -1353 0
-1322 -1354 0
-1322 -1355 0
-1322 -1356 0
-1322 -1357 0
-1323 -1324 0
-1323 -1325 0
-1323 -1326 0
-1323 -1327 0
-1323 -1328 0
-1323 -1329 0
-1323 -1330 0
-1323 -1331 0
-1323 -1332 0
-1323 -1333 0
-1323 -1334 0
-1323 -1335 0
-1323 -1336 0
-1323 -1337 0
-1323 -1338 0
-1323 -1339 0
-1323 -1340 0
-1323 -1341 0
-1323 -1342 0
-1323 -1343 0
-1323 -1344 0
-1323 -1345 0
-1323 -1346 0
-1323 -1347 0
-1323 -1348 0
-1323 -1349 0
-1323 -1350 0
-1323 -1351 0
-1323 -1352 0
-1323 -1353 0
-1323 -1354 0
-1323 -1355 0
-1323 -1356 0
-1323 -1357 0
-1324 -1325 0
-1324 -1326 0
-1324 -1327 0
-1324 -1328 0
-1324 -1329 0
-1324 -1330 0
-1324 -1331 0
-1324 -1332 0
-1324 -1333 0
-1324 -1334 0
-1324 -1335 0
-1324 -1336 0
-1324 -1337 0
-1324 -1338 0
-1324 -1339 0
-1324 -1340 0
-1324 -1341 0
-1324 -1342 0
-1324 -1343 0
-1324 -1344 0
-1324 -1345 0
-1324 -1346 0
-1324 -1347 0
-1324 -1348 0
-1324 -1349 0
-1324 -1350 0
-1324 -1351 0
-1324 -1352 0
-1324 -1353 0
-1324 -1354 0
-1324 -1355 0
-1324 -1356 0
-1324 -1357 0
-1325 -1326 0
-1325 -1327 0
-1325 -1328 0
-1325 -1329 0
-1325 -1330 0
-1325 -1331 0
-1325 -1332 0
-1325 -1333 0
-1325 -1334 0
-1325 -1335 0
-1325 -1336 0
-1325 -1337 0
-1325 -1338 0
-1325 -1339 0
-1325 -1340 0
-1325 -1341 0
-1325 -1342 0
-1325 -1343 0
-1325 -1344 0
-1325 -1345 0
-1325 -1346 0
-1325 -1347 0
-1325 -1348 0
-1325 -1349 0
-1325 -1350 0
-1325 -1351 0
-1325 -1352 0
-1325 -1353 0
-1325 -1354 0
-1325 -1355 0
-1325 -1356 0
-1325 -1357 0
-1326 -1327 0
-1326 -1328 0
-1326 -1329 0
-1326 -1330 0
-1326 -1331 0
-1326 -1332 0
-1326 -1333 0
-1326 -1334 0
-1326 -1335 0
-1326 -1336 0
-1326 -1337 0
-1326 -1338 0
-1326 -1339 0
-1326 -1340 0
-1326 -1341 0
-1326 -1342 0
-1326 -1343 0
-1326 -1344 0
-1326 -1345 0
-1326 -1346 0
-1326 -1347 0
-1326 -1348 0
-1326 -1349 0
-1326 -1350 0
-1326 -1351 0
-1326 -1352 0
-1326 -1353 0
-1326 -1354 0
-1326 -1355 0
-1326 -1356 0
-1326 -1357 0
-1327 -1328 0
-1327 -1329 0
-1327 -1330 0
-1327 -1331 0
-1327 -1332 0
-1327 -1333 0
-1327 -1334 0
-1327 -1335 0
-1327 -1336 0
-1327 -1337 0
-1327 -1338 0
-1327 -1339 0
-1327 -1340 0
-1327 -1341 0
-1327 -1342 0
-1327 -1343 0
-1327 -1344 0
-1327 -1345 0
-1327 -1346 0
-1327 -1347 0
-1327 -1348 0
-1327 -1349 0
-1327 -1350 0
-1327 -1351 0
-1327 -1352 0
-1327 -1353 0
-1327 -1354 0
-1327 -1355 0
-1327 -1356 0
-1327 -1357 0
-1328 -1329 0
-1328 -1330 0
-1328 -1331 0
-1328 -1332 0
-1328 -1333 0
-1328 -1334 0
-1328 -1335 0
-1328 -1336 0
-1328 -1337 0
-1328 -1338 0
-1328 -1339 0
-1328 -1340 0
-1328 -1341 0
-1328 -1342 0
-1328 -1343 0
-1328 -1344 0
-1328 -1345 0
-1328 -1346 0
-1328 -1347 0
-1328 -1348 0
-1328 -1349 0
-1328 -1350 0
-1328 -1351 0
-1328 -1352 0
-1328 -1353 0
-1328 -1354 0
-1328 -1355 0
-1328 -1356 0
-1328 -1357 0
-1329 -1330 0
-1329 -1331 0
-1329 -1332 0
-1329 -1333 0
-1329 -1334 0
-1329 -1335 0
-1329 -1336 0
-1329 -1337 0
-1329 -1338 0
-1329 -1339 0
-1329 -1340 0
-1329 -1341 0
-1329 -1342 0
-1329 -1343 0
-1329 -1344 0
-1329 -1345 0
-1329 -1346 0
-1329 -1347 0
-1329 -1348 0
-1329 -1349 0
-1329 -1350 0
-1329 -1351 0
-1329 -1352 0
-1329 -1353 0
-1329 -1354 0
-1329 -1355 0
-1329 -1356 0
-1329 -1357 0
-1330 -1331 0
-1330 -1332 0
-1330 -1333 0
-1330 -1334 0
-1330 -1335 0
-1330 -1336 0
-1330 -1337 0
-1330 -1338 0
-1330 -1339 0
-1330 -1340 0
-1330 -1341 0
-1330 -1342 0
-1330 -1343 0
-1330 -1344 0
-1330 -1345 0
-1330 -1346 0
-1330 -1347 0
-1330 -1348 0
-1330 -1349 0
-1330 -1350 0
-1330 -1351 0
-1330 -1352 0
-1330 -1353 0
-1330 -1354 0
-1330 -1355 0
-1330 -1356 0
-1330 -1357 0
-1331 -1332 0
-1331 -1333 0
-1331 -1334 0
-1331 -1335 0
-1331 -1336 0
-1331 -1337 0
-1331 -1338 0
-1331 -1339 0
-1331 -1340 0
-1331 -1341 0
-1331 -1342 0
-1331 -1343 0
-1331 -1344 0
-1331 -1345 0
-1331 -1346 0
-1331 -1347 0
-1331 -1348 0
-1331 -1349 0
-1331 -1350 0
-1331 -1351 0
-1331 -1352 0
-1331 -1353 0
-1331 -1354 0
-1331 -1355 0
-1331 -1356 0
-1331 -1357 0
-1332 -1333 0
-1332 -1334 0
-1332 -1335 0
-1332 -1336 0
-1332 -1337 0
-1332 -1338 0
-1332 -1339 0
-1332 -1340 0
-1332 -1341 0
-1332 -1342 0
-1332 -1343 0
-1332 -1344 0
-1332 -1345 0
-1332 -1346 0
-1332 -1347 0
-1332 -1348 0
-1332 -1349 0
-1332 -1350 0
-1332 -1351 0
-1332 -1352 0
-1332 -1353 0
-1332 -1354 0
-1332 -1355 0
-1332 -1356 0
-1332 -1357 0
-1333 -1334 0
-1333 -1335 0
-1333 -1336 0
-1333 -1337 0
-1333 -1338 0
-1333 -1339 0
-1333 -1340 0
-1333 -1341 0
-1333 -1342 0
-1333 -1343 0
-1333 -1344 0
-1333 -1345 0
-1333 -1346 0
-1333 -1347 0
-1333 -1348 0
-1333 -1349 0
-1333 -1350 0
-1333 -1351 0
-1333 -1352 0
-1333 -1353 0
-1333 -1354 0
-1333 -1355 0
-1333 -1356 0
-1333 -1357 0
-1334 -1335 0
-1334 -1336 0
-1334 -1337 0
-1334 -1338 0
-1334 -1339 0
-1334 -1340 0
-1334 -1341 0
-1334 -1342 0
-1334 -1343 0
-1334 -1344 0
-1334 -1345 0
-1334 -1346 0
-1334 -1347 0
-1334 -1348 0
-1334 -1349 0
-1334 -1350 0
-1334 -1351 0
-1334 -1352 0
-1334 -1353 0
-1334 -1354 0
-1334 -1355 0
-1334 -1356 0
-1334 -1357 0
-1335 -1336 0
-1335 -1337 0
-1335 -1338 0
-1335 -1339 0
-1335 -1340 0
-1335 -1341 0
-1335 -1342 0
-1335 -1343 0
-1335 -1344 0
-1335 -1345 0
-1335 -1346 0
-1335 -1347 0
-1335 -1348 0
-1335 -1349 0
-1335 -1350 0
-1335 -1351 0
-1335 -1352 0
-1335 -1353 0
-1335 -1354 0
-1335 -1355 0
-1335 -1356 0
-1335 -1357 0
-1336 -1337 0
-1336 -1338 0
-1336 -1339 0
-1336 -1340 0
-1336 -1341 0
-1336 -1342 0
-1336 -1343 0
-1336 -1344 0
-1336 -1345 0
-1336 -1346 0
-1336 -1347 0
-1336 -1348 0
-1336 -1349 0
-1336 -1350 0
-1336 -1351 0
-1336 -1352 0
-1336 -1353 0
-1336 -1354 0
-1336 -1355 0
-1336 -1356 0
-1336 -1357 0
-1337 -1338 0
-1337 -1339 0
-1337 -1340 0
-1337 -1341 0
-1337 -1342 0
-1337 -1343 0
-1337 -1344 0
-1337 -1345 0
-1337 -1346 0
-1337 -1347 0
-1337 -1348 0
-1337 -1349 0
-1337 -1350 0
-1337 -1351 0
-1337 -1352 0
-1337 -1353 0
-1337 -1354 0
-1337 -1355 0
-1337 -1356 0
-1337 -1357 0
-1338 -1339 0
-1338 -1340 0
-1338 -1341 0
-1338 -1342 0
-1338 -1343 0
-1338 -1344 0
-1338 -1345 0
-1338 -1346 0
-1338 -1347 0
-1338 -1348 0
-1338 -1349 0
-1338 -1350 0
-1338 -1351 0
-1338 -1352 0
-1338 -1353 0
-1338 -1354 0
-1338 -1355 0
-1338 -1356 0
-1338 -1357 0
-1339 -1340 0
-1339 -1341 0
-1339 -1342 0
-1339 -1343 0
-1339 -1344 0
-1339 -1345 0
-1339 -1346 0
-1339 -1347 0
-1339 -1348 0
-1339 -1349 0
-1339 -1350 0
-1339 -1351 0
-1339 -1352 0
-1339 -1353 0
-1339 -1354 0
-1339 -1355 0
-1339 -1356 0
-1339 -1357 0
-1340 -1341 0
-1340 -1342 0
-1340 -1343 0
-1340 -1344 0
-1340 -1345 0
-1340 -1346 0
-1340 -1347 0
-1340 -1348 0
-1340 -1349 0
-1340 -1350 0
-1340 -1351 0
-1340 -1352 0
-1340 -1353 0
-1340 -1354 0
-1340 -1355 0
-1340 -1356 0
-1340 -1357 0
-1341 -1342 0
-1341 -1343 0
-1341 -1344 0
-1341 -1345 0
-1341 -1346 0
-1341 -1347 0
-1341 -1348 0
-1341 -1349 0
-1341 -1350 0
-1341 -1351 0
-1341 -1352 0
-1341 -1353 0
-1341 -1354 0
-1341 -1355 0
-1341 -1356 0
-1341 -1357 0
-1342 -1343 0
-1342 -1344 0
-1342 -1345 0
-1342 -1346 0
-1342 -1347 0
-1342 -1348 0
-1342 -1349 0
-1342 -1350 0
-1342 -1351 0
-1342 -1352 0
-1342 -1353 0
-1342 -1354 0
-1342 -1355 0
-1342 -1356 0
-1342 -1357 0
-1343 -1344 0
-1343 -1345 0
-1343 -1346 0
-1343 -1347 0
-1343 -1348 0
-1343 -1349 0
-1343 -1350 0
-1343 -1351 0
-1343 -1352 0
-1343 -1353 0
-1343 -1354 0
-1343 -1355 0
-1343 -1356 0
-1343 -1357 0
-1344 -1345 0
-1344 -1346 0
-1344 -1347 0
-1344 -1348 0
-1344 -1349 0
-1344 -1350 0
-1344 -1351 0
-1344 -1352 0
-1344 -1353 0
-1344 -1354 0
-1344 -1355 0
-1344 -1356 0
-1344 -1357 0
-1345 -1346 0
-1345 -1347 0
-1345 -1348 0
-1345 -1349 0
-1345 -1350 0
-1345 -1351 0
-1345 -1352 0
-1345 -1353 0
-1345 -1354 0
-1345 -1355 0
-1345 -1356 0
-1345 -1357 0
-1346 -1347 0
-1346 -1348 0
-1346 -1349 0
-1346 -1350 0
-1346 -1351 0
-1346 -1352 0
-1346 -1353 0
-1346 -1354 0
-1346 -1355 0
-1346 -1356 0
-1346 -1357 0
-1347 -1348 0
-1347 -1349 0
-1347 -1350 0
-1347 -1351 0
-1347 -1352 0
-1347 -1353 0
-1347 -1354 0
-1347 -1355 0
-1347 -1356 0
-1347 -1357 0
-1348 -1349 0
-1348 -1350 0
-1348 -1351 0
-1348 -1352 0
-1348 -1353 0
-1348 -1354 0
-1348 -1355 0
-1348 -1356 0
-1348 -1357 0
-1349 -1350 0
-1349 -1351 0
-1349 -1352 0
-1349 -1353 0
-1349 -1354 0
-1349 -1355 0
-1349 -1356 0
-1349 -1357 0
-1350 -1351 0
-1350 -1352 0
-1350 -1353 0
-1350 -1354 0
-1350 -1355 0
-1350 -1356 0
-1350 -1357 0
-1351 -1352 0
-1351 -1353 0
-1351 -1354 0
-1351 -1355 0
-1351 -1356 0
-1351 -1357 0
-1352 -1353 0
-1352 -1354 0
-1352 -1355 0
-1352 -1356 0
-1352 -1357 0
-1353 -1354 0
-1353 -1355 0
-1353 -1356 0
-1353 -1357 0
-1354 -1355 0
-1354 -1356 0
-1354 -1357 0
-1355 -1356 0
-1355 -1357 0
-1356 -1357 0
1358 1359 1360 1361 1362 1363 1364 1365 1366 1367 1368 1369 1370 1371 1372 1373 1374 1375 1376 1377 1378 1379 1380 1381 1382 1383 1384 1385 1386 1387 1388 1389 1390 1391 1392 1393 1394 1395 1396 1397 1398 1399 1400 1401 1402 1403 1404 1405 1406 1407 1408 1409 1410 1411 1412 1413 1414 1415 1416 1417 1418 1419 1420 1421 1422 1423 1424 1425 1426 1427 1428 1429 1430 1431 1432 1433 1434 1435 1436 1437 1438 1439 1440 1441 0
-1358 -1359 0
-1358 -1360 0
-1358 -1361 0
-1358 -1362 0
-1358 -1363 0
-1358 -1364 0
-1358 -1365 0
-1358 -1366 0
-1358 -1367 0
-1358 -1368 0
-1358 -1369 0
-1358 -1370 0
-1358 -1371 0
-1358 -1372 0
-1358 -1373 0
-1358 -1374 0
-1358 -1375 0
-1358 -1376 0
-1358 -1377 0
-1358 -1378 0
-1358 -1379 0
-1358 -1380 0
-1358 -1381 0
-1358 -1382 0
-1358 -1383 0
-1358 -1384 0
-1358 -1385 0
-1358 -1386 0
-1358 -1387 0
-1358 -1388 0
-1358 -1389 0
-1358 -1390 0
-1358 -1391 0
-1358 -1392 0
-1358 -1393 0
-1358 -1394 0
-1358 -1395 0
-1358 -1396 0
-1358 -1397 0
-1358 -1398 0
-1358 -1399 0
-1358 -1400 0
-1358 -1401 0
-1358 -1402 0
-1358 -1403 0
-1358 -1404 0
-1358 -1405 0
-1358 -1406 0
-1358 -1407 0
-1358 -1408 0
-1358 -1409 0
-1358 -1410 0
-1358 -1411 0
-1358 -1412 0
-1358 -1413 0
-1358 -1414 0
-1358 -1415 0
-1358 -1416 0
-1358 -1417 0
-1358 -1418 0
-1358 -1419 0
-1358 -1420 0
-1358 -1421 0
-1358 -1422 0
-1358 -1423 0
-1358 -1424 0
-1358 -1425 0
-1358 -1426 0
-1358 -1427 0
-1358 -1428 0
-1358 -1429 0
-1358 -1430 0
-1358 -1431 0
-1358 -1432 0
-1358 -1433 0
-1358 -1434 0
-1358 -1435 0
-1358 -1436 0
-1358 -1437 0
-1358 -1438 0
-1358 -1439 0
-1358 -1440 0
-1358 -1441 0
-1359 -1360 0
-1359 -1361 0
-1359 -1362 0
-1359 -1363 0
-1359 -1364 0
-1359 -1365 0
-1359 -1366 0
-1359 -1367 0
-1359 -1368 0
-1359 -1369 0
-1359 -1370 0
-1359 -1371 0
-1359 -1372 0
-1359 -1373 0
-1359 -1374 0
-1359 -1375 0
-1359 -1376 0
-1359 -1377 0
-1359 -1378 0
-1359 -1379 0
-1359 -1380 0
-1359 -1381 0
-1359 -1382 0
-1359 -1383 0
-1359 -1384 0
-1359 -1385 0
-1359 -1386 0
-1359 -1387 0
-1359 -1388 0
-1359 -1389 0
-1359 -1390 0
-1359 -1391 0
-1359 -1392 0
-1359 -1393 0
-1359 -1394 0
-1359 -1395 0
-1359 -1396 0
-1359 -1397 0
-1359 -1398 0
-1359 -1399 0
-1359 -1400 0
-1359 -1401 0
-1359 -1402 0
-1359 -1403 0
-1359 -1404 0
-1359 -1405 0
-1359 -1406 0
-1359 -1407 0
-1359 -1408 0
-1359 -1409 0
-1359 -1410 0
-1359 -1411 0
-1359 -1412 0
-1359 -1413 0
-1359 -1414 0
-1359 -1415 0
-1359 -1416 0
-1359 -1417 0
-1359 -1418 0
-1359 -1419 0
-1359 -1420 0
-1359 -1421 0
-1359 -1422 0
-1359 -1423 0
-1359 -1424 0
-1359 -1425 0
-1359 -1426 0
-1359 -1427 0
-1359 -1428 0
-1359 -1429 0
-1359 -1430 0
-1359 -1431 0
-1359 -1432 0
-1359 -1433 0
-1359 -1434 0
-1359 -1435 0
-1359 -1436 0
-1359 -1437 0
-1359 -1438 0
-1359 -1439 0
-1359 -1440 0
-1359 -1441 0
-1360 -1361 0
-1360 -1362 0
-1360 -1363 0
-1360 -1364 0
-1360 -1365 0
-1360 -1366 0
-1360 -1367 0
-1360 -1368 0
-1360 -1369 0
-1360 -1370 0
-1360 -1371 0
-1360 -1372 0
-1360 -1373 0
-1360 -1374 0
-1360 -1375 0
-1360 -1376 0
-1360 -1377 0
-1360 -1378 0
-1360 -1379 0
-1360 -1380 0
-1360 -1381 0
-1360 -1382 0
-1360 -1383 0
-1360 -1384 0
-1360 -1385 0
-1360 -1386 0
-1360 -1387 0
-1360 -1388 0
-1360 -1389 0
-1360 -1390 0
-1360 -1391 0
-1360 -1392 0
-1360 -1393 0
-1360 -1394 0
-1360 -1395 0
-1360 -1396 0
-1360 -1397 0
-1360 -1398 0
-1360 -1399 0
-1360 -1400 0
-1360 -1401 0
-1360 -1402 0
-1360 -1403 0
-1360 -1404 0
-1360 -1405 0
-1360 -1406 0
-1360 -1407 0
-1360 -1408 0
-1360 -1409 0
-1360 -1410 0
-1360 -1411 0
-1360 -1412 0
-1360 -1413 0
-1360 -1414 0
-1360 -1415 0
-1360 -1416 0
-1360 -1417 0
-1360 -1418 0
-1360 -1419 0
-1360 -1420 0
-1360 -1421 0
-1360 -1422 0
-1360 -1423 0
-1360 -1424 0
-1360 -1425 0
-1360 -1426 0
-1360 -1427 0
-1360 -1428 0
-1360 -1429 0
-1360 -1430 0
-1360 -1431 0
-1360 -1432 0
-1360 -1433 0
-1360 -1434 0
-1360 -1435 0
-1360 -1436 0
-1360 -1437 0
-1360 -1438 0
-1360 -1439 0
-1360 -1440 0
-1360 -1441 0
-1361 -1362 0
-1361 -1363 0
-1361 -1364 0
-1361 -1365 0
-1361 -1366 0
-1361 -1367 0
-1361 -1368 0
-1361 -1369 0
-1361 -1370 0
-1361 -1371 0
-1361 -1372 0
-1361 -1373 0
-1361 -1374 0
-1361 -1375 0
-1361 -1376 0
-1361 -1377 0
-1361 -1378 0
-1361 -1379 0
-1361 -1380 0
-1361 -1381 0
-1361 -1382 0
-1361 -1383 0
-1361 -1384 0
-1361 -1385 0
-1361 -1386 0
-1361 -1387 0
-1361 -1388 0
-1361 -1389 0
-1361 -1390 0
-1361 -1391 0
-1361 -1392 0
-1361 -1393 0
-1361 -1394 0
-1361 -1395 0
-1361 -1396 0
-1361 -1397 0
-1361 -1398 0
-1361 -1399 0
-1361 -1400 0
-1361 -1401 0
-1361 -1402 0
-1361 -1403 0
-1361 -1404 0
-1361 -1405 0
-1361 -1406 0
-1361 -1407 0
-1361 -1408 0
-1361 -1409 0
-1361 -1410 0
-1361 -1411 0
-1361 -1412 0
-1361 -1413 0
-1361 -1414 0
-1361 -1415 0
-1361 -1416 0
-1361 -1417 0
-1361 -1418 0
-1361 -1419 0
-1361 -1420 0
-1361 -1421 0
-1361 -1422 0
-1361 -1423 0
-1361 -1424 0
-1361 -1425 0
-1361 -1426 0
-1361 -1427 0
-1361 -1428 0
-1361 -1429 0
-1361 -1430 0
-1361 -1431 0
-1361 -1432 0
-1361 -1433 0
-1361 -1434 0
-1361 -1435 0
-1361 -1436 0
-1361 -1437 0
-1361 -1438 0
-1361 -1439 0
-1361 -1440 0
-1361 -1441 0
-1362 -1363 0
-1362 -1364 0
-1362 -1365 0
-1362 -1366 0
-1362 -1367 0
-1362 -1368 0
-1362 -1369 0
-1362 -1370 0
-1362 -1371 0
-1362 -1372 0
-1362 -1373 0
-1362 -1374 0
-1362 -1375 0
-1362 -1376 0
-1362 -1377 0
-1362 -1378 0
-1362 -1379 0
-1362 -1380 0
-1362 -1381 0
-1362 -1382 0
-1362 -1383 0
-1362 -1384 0
-1362 -1385 0
-1362 -1386 0
-1362 -1387 0
-1362 -1388 0
-1362 -1389 0
-1362 -1390 0
-1362 -1391 0
-1362 -1392 0
-1362 -1393 0
-1362 -1394 0
-1362 -1395 0
-1362 -1396 0
-1362 -1397 0
-1362 -1398 0
-1362 -1399 0
-1362 -1400 0
-1362 -1401 0
-1362 -1402 0
-1362 -1403 0
-1362 -1404 0
-1362 -1405 0
-1362 -1406 0
-1362 -1407 0
-1362 -1408 0
-1362 -1409 0
-1362 -1410 0
-1362 -1411 0
-1362 -1412 0
-1362 -1413 0
-1362 -1414 0
-1362 -1415 0
-1362 -1416 0
-1362 -1417 0
-1362 -1418 0
-1362 -1419 0
-1362 -1420 0
-1362 -1421 0
-1362 -1422 0
-1362 -1423 0
-1362 -1424 0
-1362 -1425 0
-1362 -1426 0
-1362 -1427 0
-1362 -1428 0
-1362 -1429 0
-1362 -1430 0
-1362 -1431 0
-1362 -1432 0
-1362 -1433 0
-1362 -1434 0
-1362 -1435 0
-1362 -1436 0
-1362 -1437 0
-1362 -1438 0
-1362 -1439 0
-1362 -1440 0
-1362 -1441 0
-1363 -1364 0
-1363 -1365 0
-1363 -1366 0
-1363 -1367 0
-1363 -1368 0
-1363 -1369 0
-1363 -1370 0
-1363 -1371 0
-1363 -1372 0
-1363 -1373 0
-1363 -1374 0
-1363 -1375 0
-1363 -1376 0
-1363 -1377 0
-1363 -1378 0
-1363 -1379 0
-1363 -1380 0
-1363 -1381 0
-1363 -1382 0
-1363 -1383 0
-1363 -1384 0
-1363 -1385 0
-1363 -1386 0
-1363 -1387 0
-1363 -1388 0
-1363 -1389 0
-1363 -1390 0
-1363 -1391 0
-1363 -1392 0
-1363 -1393 0
-1363 -1394 0
-1363 -1395 0
-1363 -1396 0
-1363 -1397 0
-1363 -1398 0
-1363 -1399 0
-1363 -1400 0
-1363 -1401 0
-1363 -1402 0
-1363 -1403 0
-1363 -1404 0
-1363 -1405 0
-1363 -1406 0
-1363 -1407 0
-1363 -1408 0
-1363 -1409 0
-1363 -1410 0
-1363 -1411 0
-1363 -1412 0
-1363 -1413 0
-1363 -1414 0
-1363 -1415 0
-1363 -1416 0
-1363 -1417 0
-1363 -1418 0
-1363 -1419 0
-1363 -1420 0
-1363 -1421 0
-1363 -1422 0
-1363 -1423 0
-1363 -1424 0
-1363 -1425 0
-1363 -1426 0
-1363 -1427 0
-1363 -1428 0
-1363 -1429 0
-1363 -1430 0
-1363 -1431 0
-1363 -1432 0
-1363 -1433 0
-1363 -1434 0
-1363 -1435 0
-1363 -1436 0
-1363 -1437 0
-1363 -1438 0
-1363 -1439 0
-1363 -1440 0
-1363 -1441 0
-1364 -1365 0
-1364 -1366 0
-1364 -1367 0
-1364 -1368 0
-1364 -1369 0
-1364 -1370 0
-1364 -1371 0
-1364 -1372 0
-1364 -1373 0
-1364 -1374 0
-1364 -1375 0
-1364 -1376 0
-1364 -1377 0
-1364 -1378 0
-1364 -1379 0
-1364 -1380 0
-1364 -1381 0
-1364 -1382 0
-1364 -1383 0
-1364 -1384 0
-1364 -1385 0
-1364 -1386 0
-1364 -1387 0
-1364 -1388 0
-1364 -1389 0
-1364 -1390 0
-1364 -1391 0
-1364 -1392 0
-1364 -1393 0
-1364 -1394 0
-1364 -1395 0
-1364 -1396 0
-1364 -1397 0
-1364 -1398 0
-1364 -1399 0
-1364 -1400 0
-1364 -1401 0
-1364 -1402 0
-1364 -1403 0
-1364 -1404 0
-1364 -1405 0
-1364 -1406 0
-1364 -1407 0
-1364 -1408 0
-1364 -1409 0
-1364 -1410 0
-1364 -1411 0
-1364 -1412 0
-1364 -1413 0
-1364 -1414 0
-1364 -1415 0
-1364 -1416 0
-1364 -1417 0
-1364 -1418 0
-1364 -1419 0
-1364 -1420 0
-1364 -1421 0
-1364 -1422 0
-1364 -1423 0
-1364 -1424 0
-1364 -1425 0
-1364 -1426 0
-1364 -1427 0
-1364 -1428 0
-1364 -1429 0
-1364 -1430 0
-1364 -1431 0
-1364 -1432 0
-1364 -1433 0
-1364 -1434 0
-1364 -1435 0
-1364 -1436 0
-1364 -1437 0
-1364 -1438 0
-1364 -1439 0
-1364 -1440 0
-1364 -1441 0
-1365 -1366 0
-1365 -1367 0
-1365 -1368 0
-1365 -1369 0
-1365 -1370 0
-1365 -1371 0
-1365 -1372 0
-1365 -1373 0
-1365 -1374 0
-1365 -1375 0
-1365 -1376 0
-1365 -1377 0
-1365 -1378 0
-1365 -1379 0
-1365 -1380 0
-1365 -1381 0
-1365 -1382 0
-1365 -1383 0
-1365 -1384 0
-1365 -1385 0
-1365 -1386 0
-1365 -1387 0
-1365 -1388 0
-1365 -1389 0
-1365 -1390 0
-1365 -1391 0
-1365 -1392 0
-1365 -1393 0
-1365 -1394 0
-1365 -1395 0
-1365 -1396 0
-1365 -1397 0
-1365 -1398 0
-1365 -1399 0
-1365 -1400 0
-1365 -1401 0
-1365 -1402 0
-1365 -1403 0
-1365 -1404 0
-1365 -1405 0
-1365 -1406 0
-1365 -1407 0
-1365 -1408 0
-1365 -1409 0
-1365 -1410 0
-1365 -1411 0
-1365 -1412 0
-1365 -1413 0
-1365 -1414 0
-1365 -1415 0
-1365 -1416 0
-1365 -1417 0
-1365 -1418 0
-1365 -1419 0
-1365 -1420 0
-1365 -1421 0
-1365 -1422 0
-1365 -1423 0
-1365 -1424 0
-1365 -1425 0
-1365 -1426 0
-1365 -1427 0
-1365 -1428 0
-1365 -1429 0
-1365 -1430 0
-1365 -1431 0
-1365 -1432 0
-1365 -1433 0
-1365 -1434 0
-1365 -1435 0
-1365 -1436 0
-1365 -1437 0
-1365 -1438 0
-1365 -1439 0
-1365 -1440 0
-1365 -1441 0
-1366 -1367 0
-1366 -1368 0
-1366 -1369 0
-1366 -1370 0
-1366 -1371 0
-1366 -1372 0
-1366 -1373 0
-1366 -1374 0
-1366 -1375 0
-1366 -1376 0
-1366 -1377 0
-1366 -1378 0
-1366 -1379 0
-1366 -1380 0
-1366 -1381 0
-1366 -1382 0
-1366 -1383 0
-1366 -1384 0
-1366 -1385 0
-1366 -1386 0
-1366 -1387 0
-1366 -1388 0
-1366 -1389 0
-1366 -1390 0
-1366 -1391 0
-1366 -1392 0
-1366 -1393 0
-1366 -1394 0
-1366 -1395 0
-1366 -1396 0
-1366 -1397 0
-1366 -1398 0
-1366 -1399 0
-1366 -1400 0
-1366 -1401 0
-1366 -1402 0
-1366 -1403 0
-1366 -1404 0
-1366 -1405 0
-1366 -1406 0
-1366 -1407 0
-1366 -1408 0
-1366 -1409 0
-1366 -1410 0
-1366 -1411 0
-1366 -1412 0
-1366 -1413 0
-1366 -1414 0
-1366 -1415 0
-1366 -1416 0
-1366 -1417 0
-1366 -1418 0
-1366 -1419 0
-1366 -1420 0
-1366 -1421 0
-1366 -1422 0
-1366 -1423 0
-1366 -1424 0
-1366 -1425 0
-1366 -1426 0
-1366 -1427 0
-1366 -1428 0
-1366 -1429 0
-1366 -1430 0
-1366 -1431 0
-1366 -1432 0
-1366 -1433 0
-1366 -1434 0
-1366 -1435 0
-1366 -1436 0
-1366 -1437 0
-1366 -1438 0
-1366 -1439 0
-1366 -1440 0
-1366 -1441 0
-1367 -1368 0
-1367 -1369 0
-1367 -1370 0
-1367 -1371 0
-1367 -1372 0
-1367 -1373 0
-1367 -1374 0
-1367 -1375 0
-1367 -1376 0
-1367 -1377 0
-1367 -1378 0
-1367 -1379 0
-1367 -1380 0
-1367 -1381 0
-1367 -1382 0
-1367 -1383 0
-1367 -1384 0
-1367 -1385 0
-1367 -1386 0
-1367 -1387 0
-1367 -1388 0
-1367 -1389 0
-1367 -1390 0
-1367 -1391 0
-1367 -1392 0
-1367 -1393 0
-1367 -1394 0
-1367 -1395 0
-1367 -1396 0
-1367 -1397 0
-1367 -1398 0
-1367 -1399 0
-1367 -1400 0
-1367 -1401 0
-1367 -1402 0
-1367 -1403 0
-1367 -1404 0
-1367 -1405 0
-1367 -1406 0
-1367 -1407 0
-1367 -1408 0
-1367 -1409 0
-1367 -1410 0
-1367 -1411 0
-1367 -1412 0
-1367 -1413 0
-1367 -1414 0
-1367 -1415 0
-1367 -1416 0
-1367 -1417 0
-1367 -1418 0
-1367 -1419 0
-1367 -1420 0
-1367 -1421 0
-1367 -1422 0
-1367 -1423 0
-1367 -1424 0
-1367 -1425 0
-1367 -1426 0
-1367 -1427 0
-1367 -1428 0
-1367 -1429 0
-1367 -1430 0
-1367 -1431 0
-1367 -1432 0
-1367 -1433 0
-1367 -1434 0
-1367 -1435 0
-1367 -1436 0
-1367 -1437 0
-1367 -1438 0
-1367 -1439 0
-1367 -1440 0
-1367 -1441 0
-1368 -1369 0
-1368 -1370 0
-1368 -1371 0
-1368 -1372 0
-1368 -1373 0
-1368 -1374 0
-1368 -1375 0
-1368 -1376 0
-1368 -1377 0
-1368 -1378 0
-1368 -1379 0
-1368 -1380 0
-1368 -1381 0
-1368 -1382 0
-1368 -1383 0
-1368 -1384 0
-1368 -1385 0
-1368 -1386 0
-1368 -1387 0
-1368 -1388 0
-1368 -1389 0
-1368 -1390 0
-1368 -1391 0
-1368 -1392 0
-1368 -1393 0
-1368 -1394 0
-1368 -1395 0
-1368 -1396 0
-1368 -1397 0
-1368 -1398 0
-1368 -1399 0
-1368 -1400 0
-1368 -1401 0
-1368 -1402 0
-1368 -1403 0
-1368 -1404 0
-1368 -1405 0
-1368 -1406 0
-1368 -1407 0
-1368 -1408 0
-1368 -1409 0
-1368 -1410 0
-1368 -1411 0
-1368 -1412 0
-1368 -1413 0
-1368 -1414 0
-1368 -1415 0
-1368 -1416 0
-1368 -1417 0
-1368 -1418 0
-1368 -1419 0
-1368 -1420 0
-1368 -1421 0
-1368 -1422 0
-1368 -1423 0
-1368 -1424 0
-1368 -1425 0
-1368 -1426 0
-1368 -1427 0
-1368 -1428 0
-1368 -1429 0
-1368 -1430 0
-1368 -1431 0
-1368 -1432 0
-1368 -1433 0
-1368 -1434 0
-1368 -1435 0
-1368 -1436 0
-1368 -1437 0
-1368 -1438 0
-1368 -1439 0
-1368 -1440 0
-1368 -1441 0
-1369 -1370 0
-1369 -1371 0
-1369 -1372 0
-1369 -1373 0
-1369 -1374 0
-1369 -1375 0
-1369 -1376 0
-1369 -1377 0
-1369 -1378 0
-1369 -1379 0
-1369 -1380 0
-1369 -1381 0
-1369 -1382 0
-1369 -1383 0
-1369 -1384 0
-1369 -1385 0
-1369 -1386 0
-1369 -1387 0
-1369 -1388 0
-1369 -1389 0
-1369 -1390 0
-1369 -1391 0
-1369 -1392 0
-1369 -1393 0
-1369 -1394 0
-1369 -1395 0
-1369 -1396 0
-1369 -1397 0
-1369 -1398 0
-1369 -1399 0
-1369 -1400 0
-1369 -1401 0
-1369 -1402 0
-1369 -1403 0
-1369 -1404 0
-1369 -1405 0
-1369 -1406 0
-1369 -1407 0
-1369 -1408 0
-1369 -1409 0
-1369 -1410 0
-1369 -1411 0
-1369 -1412 0
-1369 -1413 0
-1369 -1414 0
-1369 -1415 0
-1369 -1416 0
-1369 -1417 0
-1369 -1418 0
-1369 -1419 0
-1369 -1420 0
-1369 -1421 0
-1369 -1422 0
-1369 -1423 0
-1369 -1424 0
-1369 -1425 0
-1369 -1426 0
-1369 -1427 0
-1369 -1428 0
-1369 -1429 0
-1369 -1430 0
-1369 -1431 0
-1369 -1432 0
-1369 -1433 0
-1369 -1434 0
-1369 -1435 0
-1369 -1436 0
-1369 -1437 0
-1369 -1438 0
-1369 -1439 0
-1369 -1440 0
-1369 -1441 0
-1370 -1371 0
-1370 -1372 0
-1370 -1373 0
-1370 -1374 0
-1370 -1375 0
-1370 -1376 0
-1370 -1377 0
-1370 -1378 0
-1370 -1379 0
-1370 -1380 0
-1370 -1381 0
-1370 -1382 0
-1370 -1383 0
-1370 -1384 0
-1370 -1385 0
-1370 -1386 0
-1370 -1387 0
-1370 -1388 0
-1370 -1389 0
-1370 -1390 0
-1370 -1391 0
-1370 -1392 0
-1370 -1393 0
-1370 -1394 0
-1370 -1395 0
-1370 -1396 0
-1370 -1397 0
-1370 -1398 0
-1370 -1399 0
-1370 -1400 0
-1370 -1401 0
-1370 -1402 0
-1370 -1403 0
-1370 -1404 0
-1370 -1405 0
-1370 -1406 0
-1370 -1407 0
-1370 -1408 0
-1370 -1409 0
-1370 -1410 0
-1370 -1411 0
-1370 -1412 0
-1370 -1413 0
-1370 -1414 0
-1370 -1415 0
-1370 -1416 0
-1370 -1417 0
-1370 -1418 0
-1370 -1419 0
-1370 -1420 0
-1370 -1421 0
-1370 -1422 0
-1370 -1423 0
-1370 -1424 0
-1370 -1425 0
-1370 -1426 0
-1370 -1427 0
-1370 -1428 0
-1370 -1429 0
-1370 -1430 0
-1370 -1431 0
-1370 -1432 0
-1370 -1433 0
-1370 -1434 0
-1370 -1435 0
-1370 -1436 0
-1370 -1437 0
-1370 -1438 0
-1370 -1439 0
-1370 -1440 0
-1370 -1441 0
-1371 -1372 0
-1371 -1373 0
-1371 -1374 0
-1371 -1375 0
-1371 -1376 0
-1371 -1377 0
-1371 -1378 0
-1371 -1379 0
-1371 -1380 0
-1371 -1381 0
-1371 -1382 0
-1371 -1383 0
-1371 -1384 0
-1371 -1385 0
-1371 -1386 0
-1371 -1387 0
-1371 -1388 0
-1371 -1389 0
-1371 -1390 0
-1371 -1391 0
-1371 -1392 0
-1371 -1393 0
-1371 -1394 0
-1371 -1395 0
-1371 -1396 0
-1371 -1397 0
-1371 -1398 0
-1371 -1399 0
-1371 -1400 0
-1371 -1401 0
-1371 -1402 0
-1371 -1403 0
-1371 -1404 0
-1371 -1405 0
-1371 -1406 0
-1371 -1407 0
-1371 -1408 0
-1371 -1409 0
-1371 -1410 0
-1371 -1411 0
-1371 -1412 0
-1371 -1413 0
-1371 -1414 0
-1371 -1415 0
-1371 -1416 0
-1371 -1417 0
-1371 -1418 0
-1371 -1419 0
-1371 -1420 0
-1371 -1421 0
-1371 -1422 0
-1371 -1423 0
-1371 -1424 0
-1371 -1425 0
-1371 -1426 0
-1371 -1427 0
-1371 -1428 0
-1371 -1429 0
-1371 -1430 0
-1371 -1431 0
-1371 -1432 0
-1371 -1433 0
-1371 -1434 0
-1371 -1435 0
-1371 -1436 0
-1371 -1437 0
-1371 -1438 0
-1371 -1439 0
-1371 -1440 0
-1371 -1441 0
-1372 -1373 0
-1372 -1374 0
-1372 -1375 0
-1372 -1376 0
-1372 -1377 0
-1372 -1378 0
-1372 -1379 0
-1372 -1380 0
-1372 -1381 0
-1372 -1382 0
-1372 -1383 0
-1372 -1384 0
-1372 -1385 0
-1372 -1386 0
-1372 -1387 0
-1372 -1388 0
-1372 -1389 0
-1372 -1390 0
-1372 -1391 0
-1372 -1392 0
-1372 -1393 0
-1372 -1394 0
-1372 -1395 0
-1372 -1396 0
-1372 -1397 0
-1372 -1398 0
-1372 -1399 0
-1372 -1400 0
-1372 -1401 0
-1372 -1402 0
-1372 -1403 0
-1372 -1404 0
-1372 -1405 0
-1372 -1406 0
-1372 -1407 0
-1372 -1408 0
-1372 -1409 0
-1372 -1410 0
-1372 -1411 0
-1372 -1412 0
-1372 -1413 0
-1372 -1414 0
-1372 -1415 0
-1372 -1416 0
-1372 -1417 0
-1372 -1418 0
-1372 -1419 0
-1372 -1420 0
-1372 -1421 0
-1372 -1422 0
-1372 -1423 0
-1372 -1424 0
-1372 -1425 0
-1372 -1426 0
-1372 -1427 0
-1372 -1428 0
-1372 -1429 0
-1372 -1430 0
-1372 -1431 0
-1372 -1432 0
-1372 -1433 0
-1372 -1434 0
-1372 -1435 0
-1372 -1436 0
-1372 -1437 0
-1372 -1438 0
-1372 -1439 0
-1372 -1440 0
-1372 -1441 0
-1373 -1374 0
-1373 -1375 0
-1373 -1376 0
-1373 -1377 0
-1373 -1378 0
-1373 -1379 0
-1373 -1380 0
-1373 -1381 0
-1373 -1382 0
-1373 -1383 0
-1373 -1384 0
-1373 -1385 0
-1373 -1386 0
-1373 -1387 0
-1373 -1388 0
-1373 -1389 0
-1373 -1390 0
-1373 -1391 0
-1373 -1392 0
-1373 -1393 0
-1373 -1394 0
-1373 -1395 0
-1373 -1396 0
-1373 -1397 0
-1373 -1398 0
-1373 -1399 0
-1373 -1400 0
-1373 -1401 0
-1373 -1402 0
-1373 -1403 0
-1373 -1404 0
-1373 -1405 0
-1373 -1406 0
-1373 -1407 0
-1373 -1408 0
-1373 -1409 0
-1373 -1410 0
-1373 -1411 0
-1373 -1412 0
-1373 -1413 0
-1373 -1414 0
-1373 -1415 0
-1373 -1416 0
-1373 -1417 0
-1373 -1418 0
-1373 -1419 0
-1373 -1420 0
-1373 -1421 0
-1373 -1422 0
-1373 -1423 0
-1373 -1424 0
-1373 -1425 0
-1373 -1426 0
-1373 -1427 0
-1373 -1428 0
-1373 -1429 0
-1373 -1430 0
-1373 -1431 0
-1373 -1432 0
-1373 -1433 0
-1373 -1434 0
-1373 -1435 0
-1373 -1436 0
-1373 -1437 0
-1373 -1438 0
-1373 -1439 0
-1373 -1440 0
-1373 -1441 0
-1374 -1375 0
-1374 -1376 0
-1374 -1377 0
-1374 -1378 0
-1374 -1379 0
-1374 -1380 0
-1374 -1381 0
-1374 -1382 0
-1374 -1383 0
-1374 -1384 0
-1374 -1385 0
-1374 -1386 0
-1374 -1387 0
-1374 -1388 0
-1374 -1389 0
-1374 -1390 0
-1374 -1391 0
-1374 -1392 0
-1374 -1393 0
-1374 -1394 0
-1374 -1395 0
-1374 -1396 0
-1374 -1397 0
-1374 -1398 0
-1374 -1399 0
-1374 -1400 0
-1374 -1401 0
-1374 -1402 0
-1374 -1403 0
-1374 -1404 0
-1374 -1405 0
-1374 -1406 0
-1374 -1407 0
-1374 -1408 0
-1374 -1409 0
-1374 -1410 0
-1374 -1411 0
-1374 -1412 0
-1374 -1413 0
-1374 -1414 0
-1374 -1415 0
-1374 -1416 0
-1374 -1417 0
-1374 -1418 0
-1374 -1419 0
-1374 -1420 0
-1374 -1421 0
-1374 -1422 0
-1374 -1423 0
-1374 -1424 0
-1374 -1425 0
-1374 -1426 0
-1374 -1427 0
-1374 -1428 0
-1374 -1429 0
-1374 -1430 0
-1374 -1431 0
-1374 -1432 0
-1374 -1433 0
-1374 -1434 0
-1374 -1435 0
-1374 -1436 0
-1374 -1437 0
-1374 -1438 0
-1374 -1439 0
-1374 -1440 0
-1374 -1441 0
-1375 -1376 0
-1375 -1377 0
-1375 -1378 0
-1375 -1379 0
-1375 -1380 0
-1375 -1381 0
-1375 -1382 0
-1375 -1383 0
-1375 -1384 0
-1375 -1385 0
-1375 -1386 0
-1375 -1387 0
-1375 -1388 0
-1375 -1389 0
-1375 -1390 0
-1375 -1391 0
-1375 -1392 0
-1375 -1393 0
-1375 -1394 0
-1375 -1395 0
-1375 -1396 0
-1375 -1397 0
-1375 -1398 0
-1375 -1399 0
-1375 -1400 0
-1375 -1401 0
-1375 -1402 0
-1375 -1403 0
-1375 -1404 0
-1375 -1405 0
-1375 -1406 0
-1375 -1407 0
-1375 -1408 0
-1375 -1409 0
-1375 -1410 0
-1375 -1411 0
-1375 -1412 0
-1375 -1413 0
-1375 -1414 0
-1375 -1415 0
-1375 -1416 0
-1375 -1417 0
-1375 -1418 0
-1375 -1419 0
-1375 -1420 0
-1375 -1421 0
-1375 -1422 0
-1375 -1423 0
-1375 -1424 0
-1375 -1425 0
-1375 -1426 0
-1375 -1427 0
-1375 -1428 0
-1375 -1429 0
-1375 -1430 0
-1375 -1431 0
-1375 -1432 0
-1375 -1433 0
-1375 -1434 0
-1375 -1435 0
-1375 -1436 0
-1375 -1437 0
-1375 -1438 0
-1375 -1439 0
-1375 -1440 0
-1375 -1441 0
-1376 -1377 0
-1376 -1378 0
-1376 -1379 0
-1376 -1380 0
-1376 -1381 0
-1376 -1382 0
-1376 -1383 0
-1376 -1384 0
-1376 -1385 0
-1376 -1386 0
-1376 -1387 0
-1376 -1388 0
-1376 -1389 0
-1376 -1390 0
-1376 -1391 0
-1376 -1392 0
-1376 -1393 0
-1376 -1394 0
-1376 -1395 0
-1376 -1396 0
-1376 -1397 0
-1376 -1398 0
-1376 -1399 0
-1376 -1400 0
-1376 -1401 0
-1376 -1402 0
-1376 -1403 0
-1376 -1404 0
-1376 -1405 0
-1376 -1406 0
-1376 -1407 0
-1376 -1408 0
-1376 -1409 0
-1376 -1410 0
-1376 -1411 0
-1376 -1412 0
-1376 -1413 0
-1376 -1414 0
-1376 -1415 0
-1376 -1416 0
-1376 -1417 0
-1376 -1418 0
-1376 -1419 0
-1376 -1420 0
-1376 -1421 0
-1376 -1422 0
-1376 -1423 0
-1376 -1424 0
-1376 -1425 0
-1376 -1426 0
-1376 -1427 0
-1376 -1428 0
-1376 -1429 0
-1376 -1430 0
-1376 -1431 0
-1376 -1432 0
-1376 -1433 0
-1376 -1434 0
-1376 -1435 0
-1376 -1436 0
-1376 -1437 0
-1376 -1438 0
-1376 -1439 0
-1376 -1440 0
-1376 -1441 0
-1377 -1378 0
-1377 -1379 0
-1377 -1380 0
-1377 -1381 0
-1377 -1382 0
-1377 -1383 0
-1377 -1384 0
-1377 -1385 0
-1377 -1386 0
-1377 -1387 0
-1377 -1388 0
-1377 -1389 0
-1377 -1390 0
-1377 -1391 0
-1377 -1392 0
-1377 -1393 0
-1377 -1394 0
-1377 -1395 0
-1377 -1396 0
-1377 -1397 0
-1377 -1398 0
-1377 -1399 0
-1377 -1400 0
-1377 -1401 0
-1377 -1402 0
-1377 -1403 0
-1377 -1404 0
-1377 -1405 0
-1377 -1406 0
-1377 -1407 0
-1377 -1408 0
-1377 -1409 0
-1377 -1410 0
-1377 -1411 0
-1377 -1412 0
-1377 -1413 0
-1377 -1414 0
-1377 -1415 0
-1377 -1416 0
-1377 -1417 0
-1377 -1418 0
-1377 -1419 0
-1377 -1420 0
-1377 -1421 0
-1377 -1422 0
-1377 -1423 0
-1377 -1424 0
-1377 -1425 0
-1377 -1426 0
-1377 -1427 0
-1377 -1428 0
-1377 -1429 0
-1377 -1430 0
-1377 -1431 0
-1377 -1432 0
-1377 -1433 0
-1377 -1434 0
-1377 -1435 0
-1377 -1436 0
-1377 -1437 0
-1377 -1438 0
-1377 -1439 0
-1377 -1440 0
-1377 -1441 0
-1378 -1379 0
-1378 -1380 0
-1378 -1381 0
-1378 -1382 0
-1378 -1383 0
-1378 -1384 0
-1378 -1385 0
-1378 -1386 0
-1378 -1387 0
-1378 -1388 0
-1378 -1389 0
-1378 -1390 0
-1378 -1391 0
-1378 -1392 0
-1378 -1393 0
-1378 -1394 0
-1378 -1395 0
-1378 -1396 0
-1378 -1397 0
-1378 -1398 0
-1378 -1399 0
-1378 -1400 0
-1378 -1401 0
-1378 -1402 0
-1378 -1403 0
-1378 -1404 0
-1378 -1405 0
-1378 -1406 0
-1378 -1407 0
-1378 -1408 0
-1378 -1409 0
-1378 -1410 0
-1378 -1411 0
-1378 -1412 0
-1378 -1413 0
-1378 -1414 0
-1378 -1415 0
-1378 -1416 0
-1378 -1417 0
-1378 -1418 0
-1378 -1419 0
-1378 -1420 0
-1378 -1421 0
-1378 -1422 0
-1378 -1423 0
-1378 -1424 0
-1378 -1425 0
-1378 -1426 0
-1378 -1427 0
-1378 -1428 0
-1378 -1429 0
-1378 -1430 0
-1378 -1431 0
-1378 -1432 0
-1378 -1433 0
-1378 -1434 0
-1378 -1435 0
-1378 -1436 0
-1378 -1437 0
-1378 -1438 0
-1378 -1439 0
-1378 -1440 0
-1378 -1441 0
-1379 -1380 0
-1379 -1381 0
-1379 -1382 0
-1379 -1383 0
-1379 -1384 0
-1379 -1385 0
-1379 -1386 0
-1379 -1387 0
-1379 -1388 0
-1379 -1389 0
-1379 -1390 0
-1379 -1391 0
-1379 -1392 0
-1379 -1393 0
-1379 -1394 0
-1379 -1395 0
-1379 -1396 0
-1379 -1397 0
-1379 -1398 0
-1379 -1399 0
-1379 -1400 0
-1379 -1401 0
-1379 -1402 0
-1379 -1403 0
-1379 -1404 0
-1379 -1405 0
-1379 -1406 0
-1379 -1407 0
-1379 -1408 0
-1379 -1409 0
-1379 -1410 0
-1379 -1411 0
-1379 -1412 0
-1379 -1413 0
-1379 -1414 0
-1379 -1415 0
-1379 -1416 0
-1379 -1417 0
-1379 -1418 0
-1379 -1419 0
-1379 -1420 0
-1379 -1421 0
-1379 -1422 0
-1379 -1423 0
-1379 -1424 0
-1379 -1425 0
-1379 -1426 0
-1379 -1427 0
-1379 -1428 0
-1379 -1429 0
-1379 -1430 0
-1379 -1431 0
-1379 -1432 0
-1379 -1433 0
-1379 -1434 0
-1379 -1435 0
-1379 -1436 0
-1379 -1437 0
-1379 -1438 0
-1379 -1439 0
-1379 -1440 0
-1379 -1441 0
-1380 -1381 0
-1380 -1382 0
-1380 -1383 0
-1380 -1384 0
-1380 -1385 0
-1380 -1386 0
-1380 -1387 0
-1380 -1388 0
-1380 -1389 0
-1380 -1390 0
-1380 -1391 0
-1380 -1392 0
-1380 -1393 0
-1380 -1394 0
-1380 -1395 0
-1380 -1396 0
-1380 -1397 0
-1380 -1398 0
-1380 -1399 0
-1380 -1400 0
-1380 -1401 0
-1380 -1402 0
-1380 -1403 0
-1380 -1404 0
-1380 -1405 0
-1380 -1406 0
-1380 -1407 0
-1380 -1408 0
-1380 -1409 0
-1380 -1410 0
-1380 -1411 0
-1380 -1412 0
-1380 -1413 0
-1380 -1414 0
-1380 -1415 0
-1380 -1416 0
-1380 -1417 0
-1380 -1418 0
-1380 -1419 0
-1380 -1420 0
-1380 -1421 0
-1380 -1422 0
-1380 -1423 0
-1380 -1424 0
-1380 -1425 0
-1380 -1426 0
-1380 -1427 0
-1380 -1428 0
-1380 -1429 0
-1380 -1430 0
-1380 -1431 0
-1380 -1432 0
-1380 -1433 0
-1380 -1434 0
-1380 -1435 0
-1380 -1436 0
-1380 -1437 0
-1380 -1438 0
-1380 -1439 0
-1380 -1440 0
-1380 -1441 0
-1381 -1382 0
-1381 -1383 0
-1381 -1384 0
-1381 -1385 0
-1381 -1386 0
-1381 -1387 0
-1381 -1388 0
-1381 -1389 0
-1381 -1390 0
-1381 -1391 0
-1381 -1392 0
-1381 -1393 0
-1381 -1394 0
-1381 -1395 0
-1381 -1396 0
-1381 -1397 0
-1381 -1398 0
-1381 -1399 0
-1381 -1400 0
-1381 -1401 0
-1381 -1402 0
-1381 -1403 0
-1381 -1404 0
-1381 -1405 0
-1381 -1406 0
-1381 -1407 0
-1381 -1408 0
-1381 -1409 0
-1381 -1410 0
-1381 -1411 0
-1381 -1412 0
-1381 -1413 0
-1381 -1414 0
-1381 -1415 0
-1381 -1416 0
-1381 -1417 0
-1381 -1418 0
-1381 -1419 0
-1381 -1420 0
-1381 -1421 0
-1381 -1422 0
-1381 -1423 0
-1381 -1424 0
-1381 -1425 0
-1381 -1426 0
-1381 -1427 0
-1381 -1428 0
-1381 -1429 0
-1381 -1430 0
-1381 -1431 0
-1381 -1432 0
-1381 -1433 0
-1381 -1434 0
-1381 -1435 0
-1381 -1436 0
-1381 -1437 0
-1381 -1438 0
-1381 -1439 0
-1381 -1440 0
-1381 -1441 0
-1382 -1383 0
-1382 -1384 0
-1382 -1385 0
-1382 -1386 0
-1382 -1387 0
-1382 -1388 0
-1382 -1389 0
-1382 -1390 0
-1382 -1391 0
-1382 -1392 0
-1382 -1393 0
-1382 -1394 0
-1382 -1395 0
-1382 -1396 0
-1382 -1397 0
-1382 -1398 0
-1382 -1399 0
-1382 -1400 0
-1382 -1401 0
-1382 -1402 0
-1382 -1403 0
-1382 -1404 0
-1382 -1405 0
-1382 -1406 0
-1382 -1407 0
-1382 -1408 0
-1382 -1409 0
-1382 -1410 0
-1382 -1411 0
-1382 -1412 0
-1382 -1413 0
-1382 -1414 0
-1382 -1415 0
-1382 -1416 0
-1382 -1417 0
-1382 -1418 0
-1382 -1419 0
-1382 -1420 0
-1382 -1421 0
-1382 -1422 0
-1382 -1423 0
-1382 -1424 0
-1382 -1425 0
-1382 -1426 0
-1382 -1427 0
-1382 -1428 0
-1382 -1429 0
-1382 -1430 0
-1382 -1431 0
-1382 -1432 0
-1382 -1433 0
-1382 -1434 0
-1382 -1435 0
-1382 -1436 0
-1382 -1437 0
-1382 -1438 0
-1382 -1439 0
-1382 -1440 0
-1382 -1441 0
-1383 -1384 0
-1383 -1385 0
-1383 -1386 0
-1383 -1387 0
-1383 -1388 0
-1383 -1389 0
-1383 -1390 0
-1383 -1391 0
-1383 -1392 0
-1383 -1393 0
-1383 -1394 0
-1383 -1395 0
-1383 -1396 0
-1383 -1397 0
-1383 -1398 0
-1383 -1399 0
-1383 -1400 0
-1383 -1401 0
-1383 -1402 0
-1383 -1403 0
-1383 -1404 0
-1383 -1405 0
-1383 -1406 0
-1383 -1407 0
-1383 -1408 0
-1383 -1409 0
-1383 -1410 0
-1383 -1411 0
-1383 -1412 0
-1383 -1413 0
-1383 -1414 0
-1383 -1415 0
-1383 -1416 0
-1383 -1417 0
-1383 -1418 0
-1383 -1419 0
-1383 -1420 0
-1383 -1421 0
-1383 -1422 0
-1383 -1423 0
-1383 -1424 0
-1383 -1425 0
-1383 -1426 0
-1383 -1427 0
-1383 -1428 0
-1383 -1429 0
-1383 -1430 0
-1383 -1431 0
-1383 -1432 0
-1383 -1433 0
-1383 -1434 0
-1383 -1435 0
-1383 -1436 0
-1383 -1437 0
-1383 -1438 0
-1383 -1439 0
-1383 -1440 0
-1383 -1441 0
-1384 -1385 0
-1384 -1386 0
-1384 -1387 0
-1384 -1388 0
-1384 -1389 0
-1384 -1390 0
-1384 -1391 0
-1384 -1392 0
-1384 -1393 0
-1384 -1394 0
-1384 -1395 0
-1384 -1396 0
-1384 -1397 0
-1384 -1398 0
-1384 -1399 0
-1384 -1400 0
-1384 -1401 0
-1384 -1402 0
-1384 -1403 0
-1384 -1404 0
-1384 -1405 0
-1384 -1406 0
-1384 -1407 0
-1384 -1408 0
-1384 -1409 0
-1384 -1410 0
-1384 -1411 0
-1384 -1412 0
-1384 -1413 0
-1384 -1414 0
-1384 -1415 0
-1384 -1416 0
-1384 -1417 0
-1384 -1418 0
-1384 -1419 0
-1384 -1420 0
-1384 -1421 0
-1384 -1422 0
-1384 -1423 0
-1384 -1424 0
-1384 -1425 0
-1384 -1426 0
-1384 -1427 0
-1384 -1428 0
-1384 -1429 0
-1384 -1430 0
-1384 -1431 0
-1384 -1432 0
-1384 -1433 0
-1384 -1434 0
-1384 -1435 0
-1384 -1436 0
-1384 -1437 0
-1384 -1438 0
-1384 -1439 0
-1384 -1440 0
-1384 -1441 0
-1385 -1386 0
-1385 -1387 0
-1385 -1388 0
-1385 -1389 0
-1385 -1390 0
-1385 -1391 0
-1385 -1392 0
-1385 -1393 0
-1385 -1394 0
-1385 -1395 0
-1385 -1396 0
-1385 -1397 0
-1385 -1398 0
-1385 -1399 0
-1385 -1400 0
-1385 -1401 0
-1385 -1402 0
-1385 -1403 0
-1385 -1404 0
-1385 -1405 0
-1385 -1406 0
-1385 -1407 0
-1385 -1408 0
-1385 -1409 0
-1385 -1410 0
-1385 -1411 0
-1385 -1412 0
-1385 -1413 0
-1385 -1414 0
-1385 -1415 0
-1385 -1416 0
-1385 -1417 0
-1385 -1418 0
-1385 -1419 0
-1385 -1420 0
-1385 -1421 0
-1385 -1422 0
-1385 -1423 0
-1385 -1424 0
-1385 -1425 0
-1385 -1426 0
-1385 -1427 0
-1385 -1428 0
-1385 -1429 0
-1385 -1430 0
-1385 -1431 0
-1385 -1432 0
-1385 -1433 0
-1385 -1434 0
-1385 -1435 0
-1385 -1436 0
-1385 -1437 0
-1385 -1438 0
-1385 -1439 0
-1385 -1440 0
-1385 -1441 0
-1386 -1387 0
-1386 -1388 0
-1386 -1389 0
-1386 -1390 0
-1386 -1391 0
-1386 -1392 0
-1386 -1393 0
-1386 -1394 0
-1386 -1395 0
-1386 -1396 0
-1386 -1397 0
-1386 -1398 0
-1386 -1399 0
-1386 -1400 0
-1386 -1401 0
-1386 -1402 0
-1386 -1403 0
-1386 -1404 0
-1386 -1405 0
-1386 -1406 0
-1386 -1407 0
-1386 -1408 0
-1386 -1409 0
-1386 -1410 0
-1386 -1411 0
-1386 -1412 0
-1386 -1413 0
-1386 -1414 0
-1386 -1415 0
-1386 -1416 0
-1386 -1417 0
-1386 -1418 0
-1386 -1419 0
-1386 -1420 0
-1386 -1421 0
-1386 -1422 0
-1386 -1423 0
-1386 -1424 0
-1386 -1425 0
-1386 -1426 0
-1386 -1427 0
-1386 -1428 0
-1386 -1429 0
-1386 -1430 0
-1386 -1431 0
-1386 -1432 0
-1386 -1433 0
-1386 -1434 0
-1386 -1435 0
-1386 -1436 0
-1386 -1437 0
-1386 -1438 0
-1386 -1439 0
-1386 -1440 0
-1386 -1441 0
-1387 -1388 0
-1387 -1389 0
-1387 -1390 0
-1387 -1391 0
-1387 -1392 0
-1387 -1393 0
-1387 -1394 0
-1387 -1395 0
-1387 -1396 0
-1387 -1397 0
-1387 -1398 0
-1387 -1399 0
-1387 -1400 0
-1387 -1401 0
-1387 -1402 0
-1387 -1403 0
-1387 -1404 0
-1387 -1405 0
-1387 -1406 0
-1387 -1407 0
-1387 -1408 0
-1387 -1409 0
-1387 -1410 0
-1387 -1411 0
-1387 -1412 0
-1387 -1413 0
-1387 -1414 0
-1387 -1415 0
-1387 -1416 0
-1387 -1417 0
-1387 -1418 0
-1387 -1419 0
-1387 -1420 0
-1387 -1421 0
-1387 -1422 0
-1387 -1423 0
-1387 -1424 0
-1387 -1425 0
-1387 -1426 0
-1387 -1427 0
-1387 -1428 0
-1387 -1429 0
-1387 -1430 0
-1387 -1431 0
-1387 -1432 0
-1387 -1433 0
-1387 -1434 0
-1387 -1435 0
-1387 -1436 0
-1387 -1437 0
-1387 -1438 0
-1387 -1439 0
-1387 -1440 0
-1387 -1441 0
-1388 -1389 0
-1388 -1390 0
-1388 -1391 0
-1388 -1392 0
-1388 -1393 0
-1388 -1394 0
-1388 -1395 0
-1388 -1396 0
-1388 -1397 0
-1388 -1398 0
-1388 -1399 0
-1388 -1400 0
-1388 -1401 0
-1388 -1402 0
-1388 -1403 0
-1388 -1404 0
-1388 -1405 0
-1388 -1406 0
-1388 -1407 0
-1388 -1408 0
-1388 -1409 0
-1388 -1410 0
-1388 -1411 0
-1388 -1412 0
-1388 -1413 0
-1388 -1414 0
-1388 -1415 0
-1388 -1416 0
-1388 -1417 0
-1388 -1418 0
-1388 -1419 0
-1388 -1420 0
-1388 -1421 0
-1388 -1422 0
-1388 -1423 0
-1388 -1424 0
-1388 -1425 0
-1388 -1426 0
-1388 -1427 0
-1388 -1428 0
-1388 -1429 0
-1388 -1430 0
-1388 -1431 0
-1388 -1432 0
-1388 -1433 0
-1388 -1434 0
-1388 -1435 0
-1388 -1436 0
-1388 -1437 0
-1388 -1438 0
-1388 -1439 0
-1388 -1440 0
-1388 -1441 0
-1389 -1390 0
-1389 -1391 0
-1389 -1392 0
-1389 -1393 0
-1389 -1394 0
-1389 -1395 0
-1389 -1396 0
-1389 -1397 0
-1389 -1398 0
-1389 -1399 0
-1389 -1400 0
-1389 -1401 0
-1389 -1402 0
-1389 -1403 0
-1389 -1404 0
-1389 -1405 0
-1389 -1406 0
-1389 -1407 0
-1389 -1408 0
-1389 -1409 0
-1389 -1410 0
-1389 -1411 0
-1389 -1412 0
-1389 -1413 0
-1389 -1414 0
-1389 -1415 0
-1389 -1416 0
-1389 -1417 0
-1389 -1418 0
-1389 -1419 0
-1389 -1420 0
-1389 -1421 0
-1389 -1422 0
-1389 -1423 0
-1389 -1424 0
-1389 -1425 0
-1389 -1426 0
-1389 -1427 0
-1389 -1428 0
-1389 -1429 0
-1389 -1430 0
-1389 -1431 0
-1389 -1432 0
-1389 -1433 0
-1389 -1434 0
-1389 -1435 0
-1389 -1436 0
-1389 -1437 0
-1389 -1438 0
-1389 -1439 0
-1389 -1440 0
-1389 -1441 0
-1390 -1391 0
-1390 -1392 0
-1390 -1393 0
-1390 -1394 0
-1390 -1395 0
-1390 -1396 0
-1390 -1397 0
-1390 -1398 0
-1390 -1399 0
-1390 -1400 0
-1390 -1401 0
-1390 -1402 0
-1390 -1403 0
-1390 -1404 0
-1390 -1405 0
-1390 -1406 0
-1390 -1407 0
-1390 -1408 0
-1390 -1409 0
-1390 -1410 0
-1390 -1411 0
-1390 -1412 0
-1390 -1413 0
-1390 -1414 0
-1390 -1415 0
-1390 -1416 0
-1390 -1417 0
-1390 -1418 0
-1390 -1419 0
-1390 -1420 0
-1390 -1421 0
-1390 -1422 0
-1390 -1423 0
-1390 -1424 0
-1390 -1425 0
-1390 -1426 0
-1390 -1427 0
-1390 -1428 0
-1390 -1429 0
-1390 -1430 0
-1390 -1431 0
-1390 -1432 0
-1390 -1433 0
-1390 -1434 0
-1390 -1435 0
-1390 -1436 0
-1390 -1437 0
-1390 -1438 0
-1390 -1439 0
-1390 -1440 0
-1390 -1441 0
-1391 -1392 0
-1391 -1393 0
-1391 -1394 0
-1391 -1395 0
-1391 -1396 0
-1391 -1397 0
-1391 -1398 0
-1391 -1399 0
-1391 -1400 0
-1391 -1401 0
-1391 -1402 0
-1391 -1403 0
-1391 -1404 0
-1391 -1405 0
-1391 -1406 0
-1391 -1407 0
-1391 -1408 0
-1391 -1409 0
-1391 -1410 0
-1391 -1411 0
-1391 -1412 0
-1391 -1413 0
-1391 -1414 0
-1391 -1415 0
-1391 -1416 0
-1391 -1417 0
-1391 -1418 0
-1391 -1419 0
-1391 -1420 0
-1391 -1421 0
-1391 -1422 0
-1391 -1423 0
-1391 -1424 0
-1391 -1425 0
-1391 -1426 0
-1391 -1427 0
-1391 -1428 0
-1391 -1429 0
-1391 -1430 0
-1391 -1431 0
-1391 -1432 0
-1391 -1433 0
-1391 -1434 0
-1391 -1435 0
-1391 -1436 0
-1391 -1437 0
-1391 -1438 0
-1391 -1439 0
-1391 -1440 0
-1391 -1441 0
-1392 -1393 0
-1392 -1394 0
-1392 -1395 0
-1392 -1396 0
-1392 -1397 0
-1392 -1398 0
-1392 -1399 0
-1392 -1400 0
-1392 -1401 0
-1392 -1402 0
-1392 -1403 0
-1392 -1404 0
-1392 -1405 0
-1392 -1406 0
-1392 -1407 0
-1392 -1408 0
-1392 -1409 0
-1392 -1410 0
-1392 -1411 0
-1392 -1412 0
-1392 -1413 0
-1392 -1414 0
-1392 -1415 0
-1392 -1416 0
-1392 -1417 0
-1392 -1418 0
-1392 -1419 0
-1392 -1420 0
-1392 -1421 0
-1392 -1422 0
-1392 -1423 0
-1392 -1424 0
-1392 -1425 0
-1392 -1426 0
-1392 -1427 0
-1392 -1428 0
-1392 -1429 0
-1392 -1430 0
-1392 -1431 0
-1392 -1432 0
-1392 -1433 0
-1392 -1434 0
-1392 -1435 0
-1392 -1436 0
-1392 -1437 0
-1392 -1438 0
-1392 -1439 0
-1392 -1440 0
-1392 -1441 0
-1393 -1394 0
-1393 -1395 0
-1393 -1396 0
-1393 -1397 0
-1393 -1398 0
-1393 -1399 0
-1393 -1400 0
-1393 -1401 0
-1393 -1402 0
-1393 -1403 0
-1393 -1404 0
-1393 -1405 0
-1393 -1406 0
-1393 -1407 0
-1393 -1408 0
-1393 -1409 0
-1393 -1410 0
-1393 -1411 0
-1393 -1412 0
-1393 -1413 0
-1393 -1414 0
-1393 -1415 0
-1393 -1416 0
-1393 -1417 0
-1393 -1418 0
-1393 -1419 0
-1393 -1420 0
-1393 -1421 0
-1393 -1422 0
-1393 -1423 0
-1393 -1424 0
-1393 -1425 0
-1393 -1426 0
-1393 -1427 0
-1393 -1428 0
-1393 -1429 0
-1393 -1430 0
-1393 -1431 0
-1393 -1432 0
-1393 -1433 0
-1393 -1434 0
-1393 -1435 0
-1393 -1436 0
-1393 -1437 0
-1393 -1438 0
-1393 -1439 0
-1393 -1440 0
-1393 -1441 0
-1394 -1395 0
-1394 -1396 0
-1394 -1397 0
-1394 -1398 0
-1394 -1399 0
-1394 -1400 0
-1394 -1401 0
-1394 -1402 0
-1394 -1403 0
-1394 -1404 0
-1394 -1405 0
-1394 -1406 0
-1394 -1407 0
-1394 -1408 0
-1394 -1409 0
-1394 -1410 0
-1394 -1411 0
-1394 -1412 0
-1394 -1413 0
-1394 -1414 0
-1394 -1415 0
-1394 -1416 0
-1394 -1417 0
-1394 -1418 0
-1394 -1419 0
-1394 -1420 0
-1394 -1421 0
-1394 -1422 0
-1394 -1423 0
-1394 -1424 0
-1394 -1425 0
-1394 -1426 0
-1394 -1427 0
-1394 -1428 0
-1394 -1429 0
-1394 -1430 0
-1394 -1431 0
-1394 -1432 0
-1394 -1433 0
-1394 -1434 0
-1394 -1435 0
-1394 -1436 0
-1394 -1437 0
-1394 -1438 0
-1394 -1439 0
-1394 -1440 0
-1394 -1441 0
-1395 -1396 0
-1395 -1397 0
-1395 -1398 0
-1395 -1399 0
-1395 -1400 0
-1395 -1401 0
-1395 -1402 0
-1395 -1403 0
-1395 -1404 0
-1395 -1405 0
-1395 -1406 0
-1395 -1407 0
-1395 -1408 0
-1395 -1409 0
-1395 -1410 0
-1395 -1411 0
-1395 -1412 0
-1395 -1413 0
-1395 -1414 0
-1395 -1415 0
-1395 -1416 0
-1395 -1417 0
-1395 -1418 0
-1395 -1419 0
-1395 -1420 0
-1395 -1421 0
-1395 -1422 0
-1395 -1423 0
-1395 -1424 0
-1395 -1425 0
-1395 -1426 0
-1395 -1427 0
-1395 -1428 0
-1395 -1429 0
-1395 -1430 0
-1395 -1431 0
-1395 -1432 0
-1395 -1433 0
-1395 -1434 0
-1395 -1435 0
-1395 -1436 0
-1395 -1437 0
-1395 -1438 0
-1395 -1439 0
-1395 -1440 0
-1395 -1441 0
-1396 -1397 0
-1396 -1398 0
-1396 -1399 0
-1396 -1400 0
-1396 -1401 0
-1396 -1402 0
-1396 -1403 0
-1396 -1404 0
-1396 -1405 0
-1396 -1406 0
-1396 -1407 0
-1396 -1408 0
-1396 -1409 0
-1396 -1410 0
-1396 -1411 0
-1396 -1412 0
-1396 -1413 0
-1396 -1414 0
-1396 -1415 0
-1396 -1416 0
-1396 -1417 0
-1396 -1418 0
-1396 -1419 0
-1396 -1420 0
-1396 -1421 0
-1396 -1422 0
-1396 -1423 0
-1396 -1424 0
-1396 -1425 0
-1396 -1426 0
-1396 -1427 0
-1396 -1428 0
-1396 -1429 0
-1396 -1430 0
-1396 -1431 0
-1396 -1432 0
-1396 -1433 0
-1396 -1434 0
-1396 -1435 0
-1396 -1436 0
-1396 -1437 0
-1396 -1438 0
-1396 -1439 0
-1396 -1440 0
-1396 -1441 0
-1397 -1398 0
-1397 -1399 0
-1397 -1400 0
-1397 -1401 0
-1397 -1402 0
-1397 -1403 0
-1397 -1404 0
-1397 -1405 0
-1397 -1406 0
-1397 -1407 0
-1397 -1408 0
-1397 -1409 0
-1397 -1410 0
-1397 -1411 0
-1397 -1412 0
-1397 -1413 0
-1397 -1414 0
-1397 -1415 0
-1397 -1416 0
-1397 -1417 0
-1397 -1418 0
-1397 -1419 0
-1397 -1420 0
-1397 -1421 0
-1397 -1422 0
-1397 -1423 0
-1397 -1424 0
-1397 -1425 0
-1397 -1426 0
-1397 -1427 0
-1397 -1428 0
-1397 -1429 0
-1397 -1430 0
-1397 -1431 0
-1397 -1432 0
-1397 -1433 0
-1397 -1434 0
-1397 -1435 0
-1397 -1436 0
-1397 -1437 0
-1397 -1438 0
-1397 -1439 0
-1397 -1440 0
-1397 -1441 0
-1398 -1399 0
-1398 -1400 0
-1398 -1401 0
-1398 -1402 0
-1398 -1403 0
-1398 -1404 0
-1398 -1405 0
-1398 -1406 0
-1398 -1407 0
-1398 -1408 0
-1398 -1409 0
-1398 -1410 0
-1398 -1411 0
-1398 -1412 0
-1398 -1413 0
-1398 -1414 0
-1398 -1415 0
-1398 -1416 0
-1398 -1417 0
-1398 -1418 0
-1398 -1419 0
-1398 -1420 0
-1398 -1421 0
-1398 -1422 0
-1398 -1423 0
-1398 -1424 0
-1398 -1425 0
-1398 -1426 0
-1398 -1427 0
-1398 -1428 0
-1398 -1429 0
-1398 -1430 0
-1398 -1431 0
-1398 -1432 0
-1398 -1433 0
-1398 -1434 0
-1398 -1435 0
-1398 -1436 0
-1398 -1437 0
-1398 -1438 0
-1398 -1439 0
-1398 -1440 0
-1398 -1441 0
-1399 -1400 0
-1399 -1401 0
-1399 -1402 0
-1399 -1403 0
-1399 -1404 0
-1399 -1405 0
-1399 -1406 0
-1399 -1407 0
-1399 -1408 0
-1399 -1409 0
-1399 -1410 0
-1399 -1411 0
-1399 -1412 0
-1399 -1413 0
-1399 -1414 0
-1399 -1415 0
-1399 -1416 0
-1399 -1417 0
-1399 -1418 0
-1399 -1419 0
-1399 -1420 0
-1399 -1421 0
-1399 -1422 0
-1399 -1423 0
-1399 -1424 0
-1399 -1425 0
-1399 -1426 0
-1399 -1427 0
-1399 -1428 0
-1399 -1429 0
-1399 -1430 0
-1399 -1431 0
-1399 -1432 0
-1399 -1433 0
-1399 -1434 0
-1399 -1435 0
-1399 -1436 0
-1399 -1437 0
-1399 -1438 0
-1399 -1439 0
-1399 -1440 0
-1399 -1441 0
-1400 -1401 0
-1400 -1402 0
-1400 -1403 0
-1400 -1404 0
-1400 -1405 0
-1400 -1406 0
-1400 -1407 0
-1400 -1408 0
-1400 -1409 0
-1400 -1410 0
-1400 -1411 0
-1400 -1412 0
-1400 -1413 0
-1400 -1414 0
-1400 -1415 0
-1400 -1416 0
-1400 -1417 0
-1400 -1418 0
-1400 -1419 0
-1400 -1420 0
-1400 -1421 0
-1400 -1422 0
-1400 -1423 0
-1400 -1424 0
-1400 -1425 0
-1400 -1426 0
-1400 -1427 0
-1400 -1428 0
-1400 -1429 0
-1400 -1430 0
-1400 -1431 0
-1400 -1432 0
-1400 -1433 0
-1400 -1434 0
-1400 -1435 0
-1400 -1436 0
-1400 -1437 0
-1400 -1438 0
-1400 -1439 0
-1400 -1440 0
-1400 -1441 0
-1401 -1402 0
-1401 -1403 0
-1401 -1404 0
-1401 -1405 0
-1401 -1406 0
-1401 -1407 0
-1401 -1408 0
-1401 -1409 0
-1401 -1410 0
-1401 -1411 0
-1401 -1412 0
-1401 -1413 0
-1401 -1414 0
-1401 -1415 0
-1401 -1416 0
-1401 -1417 0
-1401 -1418 0
-1401 -1419 0
-1401 -1420 0
-1401 -1421 0
-1401 -1422 0
-1401 -1423 0
-1401 -1424 0
-1401 -1425 0
-1401 -1426 0
-1401 -1427 0
-1401 -1428 0
-1401 -1429 0
-1401 -1430 0
-1401 -1431 0
-1401 -1432 0
-1401 -1433 0
-1401 -1434 0
-1401 -1435 0
-1401 -1436 0
-1401 -1437 0
-1401 -1438 0
-1401 -1439 0
-1401 -1440 0
-1401 -1441 0
-1402 -1403 0
-1402 -1404 0
-1402 -1405 0
-1402 -1406 0
-1402 -1407 0
-1402 -1408 0
-1402 -1409 0
-1402 -1410 0
-1402 -1411 0
-1402 -1412 0
-1402 -1413 0
-1402 -1414 0
-1402 -1415 0
-1402 -1416 0
-1402 -1417 0
-1402 -1418 0
-1402 -1419 0
-1402 -1420 0
-1402 -1421 0
-1402 -1422 0
-1402 -1423 0
-1402 -1424 0
-1402 -1425 0
-1402 -1426 0
-1402 -1427 0
-1402 -1428 0
-1402 -1429 0
-1402 -1430 0
-1402 -1431 0
-1402 -1432 0
-1402 -1433 0
-1402 -1434 0
-1402 -1435 0
-1402 -1436 0
-1402 -1437 0
-1402 -1438 0
-1402 -1439 0
-1402 -1440 0
-1402 -1441 0
-1403 -1404 0
-1403 -1405 0
-1403 -1406 0
-1403 -1407 0
-1403 -1408 0
-1403 -1409 0
-1403 -1410 0
-1403 -1411 0
-1403 -1412 0
-1403 -1413 0
-1403 -1414 0
-1403 -1415 0
-1403 -1416 0
-1403 -1417 0
-1403 -1418 0
-1403 -1419 0
-1403 -1420 0
-1403 -1421 0
-1403 -1422 0
-1403 -1423 0
-1403 -1424 0
-1403 -1425 0
-1403 -1426 0
-1403 -1427 0
-1403 -1428 0
-1403 -1429 0
-1403 -1430 0
-1403 -1431 0
-1403 -1432 0
-1403 -1433 0
-1403 -1434 0
-1403 -1435 0
-1403 -1436 0
-1403 -1437 0
-1403 -1438 0
-1403 -1439 0
-1403 -1440 0
-1403 -1441 0
-1404 -1405 0
-1404 -1406 0
-1404 -1407 0
-1404 -1408 0
-1404 -1409 0
-1404 -1410 0
-1404 -1411 0
-1404 -1412 0
-1404 -1413 0
-1404 -1414 0
-1404 -1415 0
-1404 -1416 0
-1404 -1417 0
-1404 -1418 0
-1404 -1419 0
-1404 -1420 0
-1404 -1421 0
-1404 -1422 0
-1404 -1423 0
-1404 -1424 0
-1404 -1425 0
-1404 -1426 0
-1404 -1427 0
-1404 -1428 0
-1404 -1429 0
-1404 -1430 0
-1404 -1431 0
-1404 -1432 0
-1404 -1433 0
-1404 -1434 0
-1404 -1435 0
-1404 -1436 0
-1404 -1437 0
-1404 -1438 0
-1404 -1439 0
-1404 -1440 0
-1404 -1441 0
-1405 -1406 0
-1405 -1407 0
-1405 -1408 0
-1405 -1409 0
-1405 -1410 0
-1405 -1411 0
-1405 -1412 0
-1405 -1413 0
-1405 -1414 0
-1405 -1415 0
-1405 -1416 0
-1405 -1417 0
-1405 -1418 0
-1405 -1419 0
-1405 -1420 0
-1405 -1421 0
-1405 -1422 0
-1405 -1423 0
-1405 -1424 0
-1405 -1425 0
-1405 -1426 0
-1405 -1427 0
-1405 -1428 0
-1405 -1429 0
-1405 -1430 0
-1405 -1431 0
-1405 -1432 0
-1405 -1433 0
-1405 -1434 0
-1405 -1435 0
-1405 -1436 0
-1405 -1437 0
-1405 -1438 0
-1405 -1439 0
-1405 -1440 0
-1405 -1441 0
-1406 -1407 0
-1406 -1408 0
-1406 -1409 0
-1406 -1410 0
-1406 -1411 0
-1406 -1412 0
-1406 -1413 0
-1406 -1414 0
-1406 -1415 0
-1406 -1416 0
-1406 -1417 0
-1406 -1418 0
-1406 -1419 0
-1406 -1420 0
-1406 -1421 0
-1406 -1422 0
-1406 -1423 0
-1406 -1424 0
-1406 -1425 0
-1406 -1426 0
-1406 -1427 0
-1406 -1428 0
-1406 -1429 0
-1406 -1430 0
-1406 -1431 0
-1406 -1432 0
-1406 -1433 0
-1406 -1434 0
-1406 -1435 0
-1406 -1436 0
-1406 -1437 0
-1406 -1438 0
-1406 -1439 0
-1406 -1440 0
-1406 -1441 0
-1407 -1408 0
-1407 -1409 0
-1407 -1410 0
-1407 -1411 0
-1407 -1412 0
-1407 -1413 0
-1407 -1414 0
-1407 -1415 0
-1407 -1416 0
-1407 -1417 0
-1407 -1418 0
-1407 -1419 0
-1407 -1420 0
-1407 -1421 0
-1407 -1422 0
-1407 -1423 0
-1407 -1424 0
-1407 -1425 0
-1407 -1426 0
-1407 -1427 0
-1407 -1428 0
-1407 -1429 0
-1407 -1430 0
-1407 -1431 0
-1407 -1432 0
-1407 -1433 0
-1407 -1434 0
-1407 -1435 0
-1407 -1436 0
-1407 -1437 0
-1407 -1438 0
-1407 -1439 0
-1407 -1440 0
-1407 -1441 0
-1408 -1409 0
-1408 -1410 0
-1408 -1411 0
-1408 -1412 0
-1408 -1413 0
-1408 -1414 0
-1408 -1415 0
-1408 -1416 0
-1408 -1417 0
-1408 -1418 0
-1408 -1419 0
-1408 -1420 0
-1408 -1421 0
-1408 -1422 0
-1408 -1423 0
-1408 -1424 0
-1408 -1425 0
-1408 -1426 0
-1408 -1427 0
-1408 -1428 0
-1408 -1429 0
-1408 -1430 0
-1408 -1431 0
-1408 -1432 0
-1408 -1433 0
-1408 -1434 0
-1408 -1435 0
-1408 -1436 0
-1408 -1437 0
-1408 -1438 0
-1408 -1439 0
-1408 -1440 0
-1408 -1441 0
-1409 -1410 0
-1409 -1411 0
-1409 -1412 0
-1409 -1413 0
-1409 -1414 0
-1409 -1415 0
-1409 -1416 0
-1409 -1417 0
-1409 -1418 0
-1409 -1419 0
-1409 -1420 0
-1409 -1421 0
-1409 -1422 0
-1409 -1423 0
-1409 -1424 0
-1409 -1425 0
-1409 -1426 0
-1409 -1427 0
-1409 -1428 0
-1409 -1429 0
-1409 -1430 0
-1409 -1431 0
-1409 -1432 0
-1409 -1433 0
-1409 -1434 0
-1409 -1435 0
-1409 -1436 0
-1409 -1437 0
-1409 -1438 0
-1409 -1439 0
-1409 -1440 0
-1409 -1441 0
-1410 -1411 0
-1410 -1412 0
-1410 -1413 0
-1410 -1414 0
-1410 -1415 0
-1410 -1416 0
-1410 -1417 0
-1410 -1418 0
-1410 -1419 0
-1410 -1420 0
-1410 -1421 0
-1410 -1422 0
-1410 -1423 0
-1410 -1424 0
-1410 -1425 0
-1410 -1426 0
-1410 -1427 0
-1410 -1428 0
-1410 -1429 0
-1410 -1430 0
-1410 -1431 0
-1410 -1432 0
-1410 -1433 0
-1410 -1434 0
-1410 -1435 0
-1410 -1436 0
-1410 -1437 0
-1410 -1438 0
-1410 -1439 0
-1410 -1440 0
-1410 -1441 0
-1411 -1412 0
-1411 -1413 0
-1411 -1414 0
-1411 -1415 0
-1411 -1416 0
-1411 -1417 0
-1411 -1418 0
-1411 -1419 0
-1411 -1420 0
-1411 -1421 0
-1411 -1422 0
-1411 -1423 0
-1411 -1424 0
-1411 -1425 0
-1411 -1426 0
-1411 -1427 0
-1411 -1428 0
-1411 -1429 0
-1411 -1430 0
-1411 -1431 0
-1411 -1432 0
-1411 -1433 0
-1411 -1434 0
-1411 -1435 0
-1411 -1436 0
-1411 -1437 0
-1411 -1438 0
-1411 -1439 0
-1411 -1440 0
-1411 -1441 0
-1412 -1413 0
-1412 -1414 0
-1412 -1415 0
-1412 -1416 0
-1412 -1417 0
-1412 -1418 0
-1412 -1419 0
-1412 -1420 0
-1412 -1421 0
-1412 -1422 0
-1412 -1423 0
-1412 -1424 0
-1412 -1425 0
-1412 -1426 0
-1412 -1427 0
-1412 -1428 0
-1412 -1429 0
-1412 -1430 0
-1412 -1431 0
-1412 -1432 0
-1412 -1433 0
-1412 -1434 0
-1412 -1435 0
-1412 -1436 0
-1412 -1437 0
-1412 -1438 0
-1412 -1439 0
-1412 -1440 0
-1412 -1441 0
-1413 -1414 0
-1413 -1415 0
-1413 -1416 0
-1413 -1417 0
-1413 -1418 0
-1413 -1419 0
-1413 -1420 0
-1413 -1421 0
-1413 -1422 0
-1413 -1423 0
-1413 -1424 0
-1413 -1425 0
-1413 -1426 0
-1413 -1427 0
-1413 -1428 0
-1413 -1429 0
-1413 -1430 0
-1413 -1431 0
-1413 -1432 0
-1413 -1433 0
-1413 -1434 0
-1413 -1435 0
-1413 -1436 0
-1413 -1437 0
-1413 -1438 0
-1413 -1439 0
-1413 -1440 0
-1413 -1441 0
-1414 -1415 0
-1414 -1416 0
-1414 -1417 0
-1414 -1418 0
-1414 -1419 0
-1414 -1420 0
-1414 -1421 0
-1414 -1422 0
-1414 -1423 0
-1414 -1424 0
-1414 -1425 0
-1414 -1426 0
-1414 -1427 0
-1414 -1428 0
-1414 -1429 0
-1414 -1430 0
-1414 -1431 0
-1414 -1432 0
-1414 -1433 0
-1414 -1434 0
-1414 -1435 0
-1414 -1436 0
-1414 -1437 0
-1414 -1438 0
-1414 -1439 0
-1414 -1440 0
-1414 -1441 0
-1415 -1416 0
-1415 -1417 0
-1415 -1418 0
-1415 -1419 0
-1415 -1420 0
-1415 -1421 0
-1415 -1422 0
-1415 -1423 0
-1415 -1424 0
-1415 -1425 0
-1415 -1426 0
-1415 -1427 0
-1415 -1428 0
-1415 -1429 0
-1415 -1430 0
-1415 -1431 0
-1415 -1432 0
-1415 -1433 0
-1415 -1434 0
-1415 -1435 0
-1415 -1436 0
-1415 -1437 0
-1415 -1438 0
-1415 -1439 0
-1415 -1440 0
-1415 -1441 0
-1416 -1417 0
-1416 -1418 0
-1416 -1419 0
-1416 -1420 0
-1416 -1421 0
-1416 -1422 0
-1416 -1423 0
-1416 -1424 0
-1416 -1425 0
-1416 -1426 0
-1416 -1427 0
-1416 -1428 0
-1416 -1429 0
-1416 -1430 0
-1416 -1431 0
-1416 -1432 0
-1416 -1433 0
-1416 -1434 0
-1416 -1435 0
-1416 -1436 0
-1416 -1437 0
-1416 -1438 0
-1416 -1439 0
-1416 -1440 0
-1416 -1441 0
-1417 -1418 0
-1417 -1419 0
-1417 -1420 0
-1417 -1421 0
-1417 -1422 0
-1417 -1423 0
-1417 -1424 0
-1417 -1425 0
-1417 -1426 0
-1417 -1427 0
-1417 -1428 0
-1417 -1429 0
-1417 -1430 0
-1417 -1431 0
-1417 -1432 0
-1417 -1433 0
-1417 -1434 0
-1417 -1435 0
-1417 -1436 0
-1417 -1437 0
-1417 -1438 0
-1417 -1439 0
-1417 -1440 0
-1417 -1441 0
-1418 -1419 0
-1418 -1420 0
-1418 -1421 0
-1418 -1422 0
-1418 -1423 0
-1418 -1424 0
-1418 -1425 0
-1418 -1426 0
-1418 -1427 0
-1418 -1428 0
-1418 -1429 0
-1418 -1430 0
-1418 -1431 0
-1418 -1432 0
-1418 -1433 0
-1418 -1434 0
-1418 -1435 0
-1418 -1436 0
-1418 -1437 0
-1418 -1438 0
-1418 -1439 0
-1418 -1440 0
-1418 -1441 0
-1419 -1420 0
-1419 -1421 0
-1419 -1422 0
-1419 -1423 0
-1419 -1424 0
-1419 -1425 0
-1419 -1426 0
-1419 -1427 0
-1419 -1428 0
-1419 -1429 0
-1419 -1430 0
-1419 -1431 0
-1419 -1432 0
-1419 -1433 0
-1419 -1434 0
-1419 -1435 0
-1419 -1436 0
-1419 -1437 0
-1419 -1438 0
-1419 -1439 0
-1419 -1440 0
-1419 -1441 0
-1420 -1421 0
-1420 -1422 0
-1420 -1423 0
-1420 -1424 0
-1420 -1425 0
-1420 -1426 0
-1420 -1427 0
-1420 -1428 0
-1420 -1429 0
-1420 -1430 0
-1420 -1431 0
-1420 -1432 0
-1420 -1433 0
-1420 -1434 0
-1420 -1435 0
-1420 -1436 0
-1420 -1437 0
-1420 -1438 0
-1420 -1439 0
-1420 -1440 0
-1420 -1441 0
-1421 -1422 0
-1421 -1423 0
-1421 -1424 0
-1421 -1425 0
-1421 -1426 0
-1421 -1427 0
-1421 -1428 0
-1421 -1429 0
-1421 -1430 0
-1421 -1431 0
-1421 -1432 0
-1421 -1433 0
-1421 -1434 0
-1421 -1435 0
-1421 -1436 0
-1421 -1437 0
-1421 -1438 0
-1421 -1439 0
-1421 -1440 0
-1421 -1441 0
-1422 -1423 0
-1422 -1424 0
-1422 -1425 0
-1422 -1426 0
-1422 -1427 0
-1422 -1428 0
-1422 -1429 0
-1422 -1430 0
-1422 -1431 0
-1422 -1432 0
-1422 -1433 0
-1422 -1434 0
-1422 -1435 0
-1422 -1436 0
-1422 -1437 0
-1422 -1438 0
-1422 -1439 0
-1422 -1440 0
-1422 -1441 0
-1423 -1424 0
-1423 -1425 0
-1423 -1426 0
-1423 -1427 0
-1423 -1428 0
-1423 -1429 0
-1423 -1430 0
-1423 -1431 0
-1423 -1432 0
-1423 -1433 0
-1423 -1434 0
-1423 -1435 0
-1423 -1436 0
-1423 -1437 0
-1423 -1438 0
-1423 -1439 0
-1423 -1440 0
-1423 -1441 0
-1424 -1425 0
-1424 -1426 0
-1424 -1427 0
-1424 -1428 0
-1424 -1429 0
-1424 -1430 0
-1424 -1431 0
-1424 -1432 0
-1424 -1433 0
-1424 -1434 0
-1424 -1435 0
-1424 -1436 0
-1424 -1437 0
-1424 -1438 0
-1424 -1439 0
-1424 -1440 0
-1424 -1441 0
-1425 -1426 0
-1425 -1427 0
-1425 -1428 0
-1425 -1429 0
-1425 -1430 0
-1425 -1431 0
-1425 -1432 0
-1425 -1433 0
-1425 -1434 0
-1425 -1435 0
-1425 -1436 0
-1425 -1437 0
-1425 -1438 0
-1425 -1439 0
-1425 -1440 0
-1425 -1441 0
-1426 -1427 0
-1426 -1428 0
-1426 -1429 0
-1426 -1430 0
-1426 -1431 0
-1426 -1432 0
-1426 -1433 0
-1426 -1434 0
-1426 -1435 0
-1426 -1436 0
-1426 -1437 0
-1426 -1438 0
-1426 -1439 0
-1426 -1440 0
-1426 -1441 0
-1427 -1428 0
-1427 -1429 0
-1427 -1430 0
-1427 -1431 0
-1427 -1432 0
-1427 -1433 0
-1427 -1434 0
-1427 -1435 0
-1427 -1436 0
-1427 -1437 0
-1427 -1438 0
-1427 -1439 0
-1427 -1440 0
-1427 -1441 0
-1428 -1429 0
-1428 -1430 0
-1428 -1431 0
-1428 -1432 0
-1428 -1433 0
-1428 -1434 0
-1428 -1435 0
-1428 -1436 0
-1428 -1437 0
-1428 -1438 0
-1428 -1439 0
-1428 -1440 0
-1428 -1441 0
-1429 -1430 0
-1429 -1431 0
-1429 -1432 0
-1429 -1433 0
-1429 -1434 0
-1429 -1435 0
-1429 -1436 0
-1429 -1437 0
-1429 -1438 0
-1429 -1439 0
-1429 -1440 0
-1429 -1441 0
-1430 -1431 0
-1430 -1432 0
-1430 -1433 0
-1430 -1434 0
-1430 -1435 0
-1430 -1436 0
-1430 -1437 0
-1430 -1438 0
-1430 -1439 0
-1430 -1440 0
-1430 -1441 0
-1431 -1432 0
-1431 -1433 0
-1431 -1434 0
-1431 -1435 0
-1431 -1436 0
-1431 -1437 0
-1431 -1438 0
-1431 -1439 0
-1431 -1440 0
-1431 -1441 0
-1432 -1433 0
-1432 -1434 0
-1432 -1435 0
-1432 -1436 0
-1432 -1437 0
-1432 -1438 0
-1432 -1439 0
-1432 -1440 0
-1432 -1441 0
-1433 -1434 0
-1433 -1435 0
-1433 -1436 0
-1433 -1437 0
-1433 -1438 0
-1433 -1439 0
-1433 -1440 0
-1433 -1441 0
-1434 -1435 0
-1434 -1436 0
-1434 -1437 0
-1434 -1438 0
-1434 -1439 0
-1434 -1440 0
-1434 -1441 0
-1435 -1436 0
-1435 -1437 0
-1435 -1438 0
-1435 -1439 0
-1435 -1440 0
-1435 -1441 0
-1436 -1437 0
-1436 -1438 0
-1436 -1439 0
-1436 -1440 0
-1436 -1441 0
-1437 -1438 0
-1437 -1439 0
-1437 -1440 0
-1437 -1441 0
-1438 -1439 0
-1438 -1440 0
-1438 -1441 0
-1439 -1440 0
-1439 -1441 0
-1440 -1441 0
